@set PROJECT Au 
@set RUN ENERGY
 
&FORCE_EVAL
  METHOD QMMM 
    &DFT
    BASIS_SET_FILE_NAME BASIS_ccGRB_UZH
    POTENTIAL_FILE_NAME POTENTIAL_UZH
    ! Select RI basis set size among SMALL, MEDIUM, LARGE
    AUTO_BASIS RI_HFX MEDIUM 
    &MGRID
      CUTOFF       800 
      REL_CUTOFF    80
      COMMENSURATE
    &END MGRID
    &POISSON
      PERIODIC XY
      POISSON_SOLVER MT 
    &END POISSON
    ! Print basis set information
    &PRINT
      &BASIS_SET_FILE
      &END
    &END
    &SCF
      SCF_GUESS ATOMIC
      EPS_SCF 1.0E-8
      MAX_SCF 1 
      ADDED_MOS 2000 
      CHOLESKY INVERSE
      &SMEAR  ON
         METHOD FERMI_DIRAC
         ELECTRONIC_TEMPERATURE [K] 300 
      &END SMEAR
      &DIAGONALIZATION
          ALGORITHM STANDARD
      &END DIAGONALIZATION
      &MIXING
          METHOD BROYDEN_MIXING
          ALPHA   0.1
          BETA    1.5
          NBROYDEN  8
      &END MIXING 
      &PRINT
        &RESTART
        &END
      &END
    &END SCF
    &XC
      &XC_FUNCTIONAL PBE
      &END XC_FUNCTIONAL
      &HF
         FRACTION 0.0
         &RI
            RI_METRIC IDENTITY
         &END
         &INTERACTION_POTENTIAL
            POTENTIAL_TYPE IDENTITY
         &END
      &END
    &END XC
  &END DFT
  &MM
    &FORCEFIELD
     &CHARGE
      ATOM Na
      CHARGE 1.000000
     &END CHARGE
     &CHARGE
      ATOM Au
      CHARGE 0.0
     &END CHARGE
     &NONBONDED
        &LENNARD-JONES
          atoms Na Na
          EPSILON 0.0 
          SIGMA 3.166
          RCUT 11.4
        &END LENNARD-JONES
        &LENNARD-JONES
          atoms Na Au 
          EPSILON 0.0
          SIGMA 3.6705
          RCUT 11.4
        &END LENNARD-JONES
        &LENNARD-JONES
          atoms Au Au 
          EPSILON 0.0
          SIGMA 3.6705
          RCUT 11.4
        &END LENNARD-JONES
      &END NONBONDED
    &END FORCEFIELD
    &POISSON
      &EWALD
        EWALD_TYPE ewald
        ALPHA .44
        GMAX 21
      &END EWALD
    &END POISSON
  &END MM
  &QMMM
    MM_POTENTIAL_FILE_NAME MM_POTENTIAL
    USE_GEEP_LIB 12 
    @include cell.sys
    ECOUPL GAUSS
    NOCOMPATIBILITY
    &PERIODIC
      &POISSON
        PERIODIC XY
        POISSON_SOLVER MT
      &END POISSON
      &MULTIPOLE OFF
      &END
    &END PERIODIC
    &MM_KIND Na
     RADIUS 2.27 !ionic radius
    &END MM_KIND
    &QM_KIND Au
      MM_INDEX 1..12    
    &END QM_KIND
  &END QMMM
  &SUBSYS
    @include cell.sys
    @include coords.sys
    &KIND Au
      BASIS_SET ccGRB-D-q11
      POTENTIAL GTH-PBE-q11
    &END KIND
    &KIND Na 
      BASIS_SET ccGRB-D-q11
      POTENTIAL GTH-PBE-q11
    &END KIND
    &TOPOLOGY
    &END TOPOLOGY
  &END SUBSYS
&END FORCE_EVAL
&GLOBAL
  PROJECT ${PROJECT}
  RUN_TYPE ${RUN}
  PRINT_LEVEL MEDIUM
  EXTENDED_FFT_LENGTHS
&END GLOBAL
