@set PROJECT Au 
@set RUN ENERGY
 
&FORCE_EVAL
  METHOD QMMM 
    &DFT
    BASIS_SET_FILE_NAME BASIS_ccGRB_UZH
    BASIS_SET_FILE_NAME RI_AUTO_OPT
    POTENTIAL_FILE_NAME POTENTIAL_UZH
    &MGRID
      CUTOFF       800 
      REL_CUTOFF    80
      COMMENSURATE
    &END MGRID
    &POISSON
      PERIODIC XY
      POISSON_SOLVER MT 
    &END POISSON
    &SCF
      SCF_GUESS ATOMIC
      EPS_SCF 1.0E-8
      MAX_SCF 1000
      ADDED_MOS 2000 
      CHOLESKY INVERSE
      &SMEAR  ON
         METHOD FERMI_DIRAC
         ELECTRONIC_TEMPERATURE [K] 300 
      &END SMEAR
      &DIAGONALIZATION
          ALGORITHM STANDARD
      &END DIAGONALIZATION
      &MIXING
          METHOD BROYDEN_MIXING
          ALPHA   0.1
          BETA    1.5
          NBROYDEN  8
      &END MIXING 
      &PRINT
        &RESTART
        &END
      &END
    &END SCF
    &XC
      &XC_FUNCTIONAL PBE
      &END XC_FUNCTIONAL
      !The following HF section has no effect on the result of the calculation
      !it is only there because the relevant quantities are only available in RI-HFX
      &HF
         FRACTION 0.0 !we do not want any HF
         &INTERACTION_POTENTIAL
            !this is completely irrelevant, except that we need a short range potential for the calculation
            !to go through in PBCs, so IDENTITY (=overlap) is fine
            POTENTIAL_TYPE IDENTITY
         &END
         !This is the critical section
         &RI
            RI_METRIC IDENTITY !this is the metric used for the projection of the density (overlap here)
            MEMORY_CUT 1
            &PRINT
               !Subsection required to have the RI density coefficient printed (in demo-RI_DENSITY_COEFFS.dat)
               &RI_DENSITY_COEFFS
                  !MULT_BY_S !uncomment to have the RI coefficients directly multiplied by the metric (overlap here)
               &END
               !To get the metric 2c integrals, use the following (in demo-RI_2C_INTS.fm), unformated
               &RI_METRIC_2C_INTS
               &END
            &END
         &END
      &END
    &END XC
  &END DFT
  &MM
    &FORCEFIELD
     &CHARGE
      ATOM Na
      CHARGE 1.000000
     &END CHARGE
     &CHARGE
      ATOM Au
      CHARGE 0.0
     &END CHARGE
     &NONBONDED
        &LENNARD-JONES
          atoms Na Na
          EPSILON 0.0 
          SIGMA 3.166
          RCUT 11.4
        &END LENNARD-JONES
        &LENNARD-JONES
          atoms Na Au 
          EPSILON 0.0
          SIGMA 3.6705
          RCUT 11.4
        &END LENNARD-JONES
        &LENNARD-JONES
          atoms Au Au 
          EPSILON 0.0
          SIGMA 3.6705
          RCUT 11.4
        &END LENNARD-JONES
      &END NONBONDED
    &END FORCEFIELD
    &POISSON
      &EWALD
        EWALD_TYPE ewald
        ALPHA .44
        GMAX 21
      &END EWALD
    &END POISSON
  &END MM
  &QMMM
    MM_POTENTIAL_FILE_NAME MM_POTENTIAL
    USE_GEEP_LIB 12 
    @include cell.sys
    ECOUPL GAUSS
    NOCOMPATIBILITY
    &PERIODIC
      &POISSON
        PERIODIC XY
        POISSON_SOLVER MT
      &END POISSON
      &MULTIPOLE OFF
      &END
    &END PERIODIC
    &MM_KIND Na
     RADIUS 2.27 !ionic radius
    &END MM_KIND
    &QM_KIND Au
      MM_INDEX 1..12    
    &END QM_KIND
  &END QMMM
  &SUBSYS
    @include cell.sys
    @include coords.sys
    &KIND Au
      BASIS_SET ccGRB-D-q11
      BASIS_SET RI_HFX RI_AUTO_OPT-ccGRB
      POTENTIAL GTH-PBE-q11
    &END KIND
    &KIND Na 
      BASIS_SET ccGRB-D-q11
      BASIS_SET RI_HFX RI_AUTO_OPT-ccGRB
      POTENTIAL GTH-PBE-q11
    &END KIND
    &TOPOLOGY
    &END TOPOLOGY
  &END SUBSYS
&END FORCE_EVAL
&GLOBAL
  PROJECT ${PROJECT}
  RUN_TYPE ${RUN}
  PRINT_LEVEL MEDIUM
  EXTENDED_FFT_LENGTHS
&END GLOBAL
