3
Properties=species:S:1:pos:R:3:initial_magmoms:R:1:initial_charges:R:1 pbc="F F F"
C        0.08820262      -0.18015845       0.04893690       2.07181800      -0.26665900
H        1.11873944      -0.51353895      -0.04886389      -0.03590900       0.13332900
H       -0.95919036      -0.61448471      -0.00516094      -0.03590900       0.13332900
3
Properties=species:S:1:pos:R:3:initial_magmoms:R:1:initial_charges:R:1 pbc="F F F"
C        0.08121727      -0.23075413      -0.02640859       2.07181800      -0.26665900
H        0.95304635      -0.56364646      -0.11507693      -0.03590900       0.13332900
H       -0.91945419      -0.64497719       0.01595195      -0.03590900       0.13332900
3
Properties=species:S:1:pos:R:3:initial_magmoms:R:1:initial_charges:R:1 pbc="F F F"
C       -0.02083789      -0.20297965      -0.10680980       2.07181800      -0.26665900
H        1.08870832      -0.69658863      -0.04208737      -0.03590900       0.13332900
H       -0.98155071      -0.66918125      -0.05289761      -0.03590900       0.13332900
3
Properties=species:S:1:pos:R:3:initial_magmoms:R:1:initial_charges:R:1 pbc="F F F"
C        0.08943142      -0.17834081       0.00482487       2.07181800      -0.26665900
H        0.91352014      -0.62078626      -0.01773795      -0.03590900       0.13332900
H       -1.01083185      -0.63826688      -0.00219091      -0.03590900       0.13332900
3
Properties=species:S:1:pos:R:3:initial_magmoms:R:1:initial_charges:R:1 pbc="F F F"
C        0.00252809      -0.17516874      -0.04979545       2.07181800      -0.26665900
H        1.04137470      -0.62783192      -0.07922886      -0.03590900       0.13332900
H       -1.03908012      -0.57698809       0.01661250      -0.03590900       0.13332900
3
Properties=species:S:1:pos:R:3:initial_magmoms:R:1:initial_charges:R:1 pbc="F F F"
C        0.02206137      -0.21670981       0.12153856       2.07181800      -0.26665900
H        0.99409017      -0.60143635       0.07912406      -0.03590900       0.13332900
H       -1.05215640      -0.63649868       0.00938016      -0.03590900       0.13332900
3
Properties=species:S:1:pos:R:3:initial_magmoms:R:1:initial_charges:R:1 pbc="F F F"
C       -0.01558918      -0.16371611       0.01089104       2.07181800      -0.26665900
H        0.96174019      -0.73125588       0.04566258      -0.03590900       0.13332900
H       -0.95034159      -0.68262151       0.08196455      -0.03590900       0.13332900
3
Properties=species:S:1:pos:R:3:initial_magmoms:R:1:initial_charges:R:1 pbc="F F F"
C        0.08452629      -0.22346318       0.00164101       2.07181800      -0.26665900
H        1.02707059      -0.64636300       0.00010328      -0.03590900       0.13332900
H       -1.00673930      -0.69465306       0.05088290      -0.03590900       0.13332900
3
Properties=species:S:1:pos:R:3:initial_magmoms:R:1:initial_charges:R:1 pbc="F F F"
C        0.00456024      -0.14560217      -0.09734852       2.07181800      -0.26665900
H        0.93737730      -0.72174143       0.12049172      -0.03590900       0.13332900
H       -0.92030297      -0.49668903       0.03974138      -0.03590900       0.13332900
3
Properties=species:S:1:pos:R:3:initial_magmoms:R:1:initial_charges:R:1 pbc="F F F"
C        0.00005543      -0.21464351      -0.05580332       2.07181800      -0.26665900
H        1.00605064      -0.62583492      -0.02405677      -0.03590900       0.13332900
H       -1.08256134      -0.63146045      -0.01203403      -0.03590900       0.13332900
3
Properties=species:S:1:pos:R:3:initial_magmoms:R:1:initial_charges:R:1 pbc="F F F"
C        0.06657933      -0.16440236      -0.07727001       2.07181800      -0.26665900
H        1.00627558      -0.57585005      -0.03600428      -0.03590900       0.13332900
H       -0.99341920      -0.60148942       0.00021457      -0.03590900       0.13332900
3
Properties=species:S:1:pos:R:3:initial_magmoms:R:1:initial_charges:R:1 pbc="F F F"
C        0.08747274      -0.21446996      -0.02422826       2.07181800      -0.26665900
H        0.87402885      -0.60733108      -0.01598157      -0.03590900       0.13332900
H       -1.03352625      -0.59114671       0.02105254      -0.03590900       0.13332900
3
Properties=species:S:1:pos:R:3:initial_magmoms:R:1:initial_charges:R:1 pbc="F F F"
C        0.02364929      -0.23423760       0.01212197       2.07181800      -0.26665900
H        0.92165800      -0.56925970      -0.07673607      -0.03590900       0.13332900
H       -1.00643842      -0.61292823      -0.04034909      -0.03590900       0.13332900
3
Properties=species:S:1:pos:R:3:initial_magmoms:R:1:initial_charges:R:1 pbc="F F F"
C       -0.03561953      -0.16247799      -0.00222515       2.07181800      -0.26665900
H        1.02928539      -0.53966176       0.02661689      -0.03590900       0.13332900
H       -0.93918538      -0.56385628       0.07393429      -0.03590900       0.13332900
3
Properties=species:S:1:pos:R:3:initial_magmoms:R:1:initial_charges:R:1 pbc="F F F"
C        0.07756696      -0.19620701       0.00869883       2.07181800      -0.26665900
H        1.00307795      -0.70713332       0.00723389      -0.03590900       0.13332900
H       -1.08175321      -0.59636137      -0.02791025      -0.03590900       0.13332900
3
Properties=species:S:1:pos:R:3:initial_magmoms:R:1:initial_charges:R:1 pbc="F F F"
C       -0.01561642      -0.18320207      -0.00779543       2.07181800      -0.26665900
H        0.98160529      -0.59513840      -0.08818026      -0.03590900       0.13332900
H       -1.06148788      -0.66130513      -0.01525850      -0.03590900       0.13332900
3
Properties=species:S:1:pos:R:3:initial_magmoms:R:1:initial_charges:R:1 pbc="F F F"
C        0.00639744      -0.27658998      -0.02972340       2.07181800      -0.26665900
H        1.01001130      -0.66869159      -0.03106843      -0.03590900       0.13332900
H       -1.05114217      -0.58197135      -0.03934486      -0.03590900       0.13332900
3
Properties=species:S:1:pos:R:3:initial_magmoms:R:1:initial_charges:R:1 pbc="F F F"
C        0.01381329      -0.29289771       0.03119506       2.07181800      -0.26665900
H        1.06396034      -0.55505732       0.09433195      -0.03590900       0.13332900
H       -1.01227969      -0.62502191       0.00743375      -0.03590900       0.13332900
3
Properties=species:S:1:pos:R:3:initial_magmoms:R:1:initial_charges:R:1 pbc="F F F"
C        0.00397142      -0.09065619      -0.00674461       2.07181800      -0.26665900
H        1.01472068      -0.58478195       0.03116957      -0.03590900       0.13332900
H       -0.95624960      -0.58720441      -0.01681934      -0.03590900       0.13332900
3
Properties=species:S:1:pos:R:3:initial_magmoms:R:1:initial_charges:R:1 pbc="F F F"
C        0.01105016      -0.21718956      -0.02888743       2.07181800      -0.26665900
H        0.98649320      -0.63708132      -0.01219261      -0.03590900       0.13332900
H       -0.95492759      -0.57787918       0.01262069      -0.03590900       0.13332900
3
Properties=species:S:1:pos:R:3:initial_magmoms:R:1:initial_charges:R:1 pbc="F F F"
C        0.04419466      -0.19037306       0.01787683       2.07181800      -0.26665900
H        0.88953168      -0.66115848       0.02798481      -0.03590900       0.13332900
H       -0.95972131      -0.65584090       0.02515484      -0.03590900       0.13332900
3
Properties=species:S:1:pos:R:3:initial_magmoms:R:1:initial_charges:R:1 pbc="F F F"
C       -0.00259821      -0.20572611       0.05208984       2.07181800      -0.26665900
H        0.94385781      -0.56964746      -0.08555269      -0.03590900       0.13332900
H       -1.01698800      -0.61864541       0.05640720      -0.03590900       0.13332900
3
Properties=species:S:1:pos:R:3:initial_magmoms:R:1:initial_charges:R:1 pbc="F F F"
C       -0.00459750      -0.27333384       0.05408958       2.07181800      -0.26665900
H        0.99472852      -0.63147330      -0.05011360      -0.03590900       0.13332900
H       -0.96075370      -0.66209845       0.03132467      -0.03590900       0.13332900
3
Properties=species:S:1:pos:R:3:initial_magmoms:R:1:initial_charges:R:1 pbc="F F F"
C        0.03334940      -0.19887565      -0.03888097       2.07181800      -0.26665900
H        1.05412647      -0.57183326      -0.05255408      -0.03590900       0.13332900
H       -1.02507218      -0.66378983      -0.06610738      -0.03590900       0.13332900
3
Properties=species:S:1:pos:R:3:initial_magmoms:R:1:initial_charges:R:1 pbc="F F F"
C        0.06646061      -0.23866798      -0.01581402       2.07181800      -0.26665900
H        0.95715426      -0.66045766      -0.07193566      -0.03590900       0.13332900
H       -0.97847393      -0.59213075      -0.08132021      -0.03590900       0.13332900
3
Properties=species:S:1:pos:R:3:initial_magmoms:R:1:initial_charges:R:1 pbc="F F F"
C        0.01141365      -0.14882179      -0.04197924       2.07181800      -0.26665900
H        0.97713570      -0.65476126      -0.01111628      -0.03590900       0.13332900
H       -1.03769053      -0.51502162      -0.10266154      -0.03590900       0.13332900
3
Properties=species:S:1:pos:R:3:initial_magmoms:R:1:initial_charges:R:1 pbc="F F F"
C        0.00979966      -0.29722813       0.03568927       2.07181800      -0.26665900
H        1.03980218      -0.61835995       0.01358754      -0.03590900       0.13332900
H       -1.00814822      -0.69489595      -0.03971403      -0.03590900       0.13332900
3
Properties=species:S:1:pos:R:3:initial_magmoms:R:1:initial_charges:R:1 pbc="F F F"
C        0.06428027      -0.21534398       0.03095378       2.07181800      -0.26665900
H        1.02649470      -0.59574656      -0.00271697      -0.03590900       0.13332900
H       -1.01565859      -0.59477525       0.04105283      -0.03590900       0.13332900
3
Properties=species:S:1:pos:R:3:initial_magmoms:R:1:initial_charges:R:1 pbc="F F F"
C        0.02231662      -0.11671030      -0.01321400       2.07181800      -0.26665900
H        0.95830303      -0.60395743       0.07573100      -0.03590900       0.13332900
H       -0.98985125      -0.62203528      -0.04193209      -0.03590900       0.13332900
3
Properties=species:S:1:pos:R:3:initial_magmoms:R:1:initial_charges:R:1 pbc="F F F"
C       -0.02087411      -0.16486470       0.09579924       2.07181800      -0.26665900
H        0.89960700      -0.57096400       0.02335363      -0.03590900       0.13332900
H       -0.96835865      -0.56281637       0.04043753      -0.03590900       0.13332900
3
Properties=species:S:1:pos:R:3:initial_magmoms:R:1:initial_charges:R:1 pbc="F F F"
C       -0.06320263      -0.12377104      -0.04853555       2.07181800      -0.26665900
H        1.03022276      -0.61195168       0.01518966      -0.03590900       0.13332900
H       -1.09299290      -0.52766208       0.00671483      -0.03590900       0.13332900
3
Properties=species:S:1:pos:R:3:initial_magmoms:R:1:initial_charges:R:1 pbc="F F F"
C       -0.02073786      -0.21683474       0.00405460       2.07181800      -0.26665900
H        0.96714343      -0.61784683      -0.03815984      -0.03590900       0.13332900
H       -1.04555079      -0.51444902      -0.03528002      -0.03590900       0.13332900
3
Properties=species:S:1:pos:R:3:initial_magmoms:R:1:initial_charges:R:1 pbc="F F F"
C       -0.01744472      -0.15098114       0.02904614       2.07181800      -0.26665900
H        1.01020900      -0.56804021       0.02909794      -0.03590900       0.13332900
H       -0.93310525      -0.52375780      -0.01305886      -0.03590900       0.13332900
3
Properties=species:S:1:pos:R:3:initial_magmoms:R:1:initial_charges:R:1 pbc="F F F"
C       -0.01594268      -0.28031534      -0.07676089       2.07181800      -0.26665900
H        0.97817473      -0.61775326       0.01274372      -0.03590900       0.13332900
H       -1.01416727      -0.50637772      -0.00483921      -0.03590900       0.13332900
3
Properties=species:S:1:pos:R:3:initial_magmoms:R:1:initial_charges:R:1 pbc="F F F"
C        0.01219176      -0.23753222      -0.07805885       2.07181800      -0.26665900
H        0.98348212      -0.62451996      -0.06407459      -0.03590900       0.13332900
H       -0.99222982      -0.55791542       0.02389621      -0.03590900       0.13332900
3
Properties=species:S:1:pos:R:3:initial_magmoms:R:1:initial_charges:R:1 pbc="F F F"
C       -0.09448684      -0.22084592      -0.03830130       2.07181800      -0.26665900
H        0.96048844      -0.67799674       0.04026280      -0.03590900       0.13332900
H       -0.94925169      -0.54844543      -0.04010046      -0.03590900       0.13332900
3
Properties=species:S:1:pos:R:3:initial_magmoms:R:1:initial_charges:R:1 pbc="F F F"
C        0.03382066      -0.12411135      -0.02559381       2.07181800      -0.26665900
H        1.06420451      -0.63645269      -0.03843826      -0.03590900       0.13332900
H       -1.02344524      -0.60226687      -0.06887766      -0.03590900       0.13332900
3
Properties=species:S:1:pos:R:3:initial_magmoms:R:1:initial_charges:R:1 pbc="F F F"
C       -0.00272318      -0.16645090       0.01733235       2.07181800      -0.26665900
H        0.94167747      -0.53099125       0.04949119      -0.03590900       0.13332900
H       -0.99281073      -0.62934631       0.04809831      -0.03590900       0.13332900
3
Properties=species:S:1:pos:R:3:initial_magmoms:R:1:initial_charges:R:1 pbc="F F F"
C        0.05043528      -0.21632247       0.00638732       2.07181800      -0.26665900
H        1.02068342      -0.54248027       0.08126482      -0.03590900       0.13332900
H       -1.03015430      -0.66938686      -0.01302126      -0.03590900       0.13332900
3
Properties=species:S:1:pos:R:3:initial_magmoms:R:1:initial_charges:R:1 pbc="F F F"
C        0.07024198      -0.18911026      -0.00726637       2.07181800      -0.26665900
H        1.01285474      -0.57661550       0.12113850      -0.03590900       0.13332900
H       -1.10252520      -0.72804320       0.03231471      -0.03590900       0.13332900
3
Properties=species:S:1:pos:R:3:initial_magmoms:R:1:initial_charges:R:1 pbc="F F F"
C       -0.03037738      -0.20647313      -0.03423032       2.07181800      -0.26665900
H        1.05313051      -0.69913690      -0.02335012      -0.03590900       0.13332900
H       -0.89207026      -0.58247634       0.03551335      -0.03590900       0.13332900
3
Properties=species:S:1:pos:R:3:initial_magmoms:R:1:initial_charges:R:1 pbc="F F F"
C       -0.01353562      -0.19492390       0.01252639       2.07181800      -0.26665900
H        0.96043478      -0.57855966      -0.05200901      -0.03590900       0.13332900
H       -1.01437857      -0.56742426      -0.06131079      -0.03590900       0.13332900
3
Properties=species:S:1:pos:R:3:initial_magmoms:R:1:initial_charges:R:1 pbc="F F F"
C        0.02483571      -0.20707952       0.03238443       2.07181800      -0.26665900
H        1.08284627      -0.61862452      -0.01170685      -0.03590900       0.13332900
H       -0.92773414      -0.56854511      -0.02347372      -0.03590900       0.13332900
3
Properties=species:S:1:pos:R:3:initial_magmoms:R:1:initial_charges:R:1 pbc="F F F"
C        0.01287000      -0.24559038      -0.01892516       2.07181800      -0.26665900
H        0.97994900      -0.56401318      -0.02065050      -0.03590900       0.13332900
H       -0.98178535      -0.50640688       0.06314308      -0.03590900       0.13332900
3
Properties=species:S:1:pos:R:3:initial_magmoms:R:1:initial_charges:R:1 pbc="F F F"
C       -0.03753074      -0.13434844       0.06230700       2.07181800      -0.26665900
H        0.92644899      -0.68032403      -0.08575352      -0.03590900       0.13332900
H       -0.91375559      -0.60253745      -0.00261611      -0.03590900       0.13332900
3
Properties=species:S:1:pos:R:3:initial_magmoms:R:1:initial_charges:R:1 pbc="F F F"
C        0.00131874      -0.18715022      -0.01975728       2.07181800      -0.26665900
H        0.99647973      -0.67049848      -0.12984393      -0.03590900       0.13332900
H       -0.99221073      -0.65058208       0.01970363      -0.03590900       0.13332900
3
Properties=species:S:1:pos:R:3:initial_magmoms:R:1:initial_charges:R:1 pbc="F F F"
C        0.02924379      -0.13860652       0.04109501       2.07181800      -0.26665900
H        0.96673336      -0.58631418      -0.00880783      -0.03590900       0.13332900
H       -1.01035338      -0.63520017      -0.00467326      -0.03590900       0.13332900
3
Properties=species:S:1:pos:R:3:initial_magmoms:R:1:initial_charges:R:1 pbc="F F F"
C       -0.04240047      -0.13487099       0.04621040       2.07181800      -0.26665900
H        1.03871537      -0.65965370       0.08988804      -0.03590900       0.13332900
H       -1.05733411      -0.56573568      -0.01473252      -0.03590900       0.13332900
3
Properties=species:S:1:pos:R:3:initial_magmoms:R:1:initial_charges:R:1 pbc="F F F"
C       -0.04968157      -0.25333635      -0.03190380       2.07181800      -0.26665900
H        1.05977421      -0.61478705       0.05468642      -0.03590900       0.13332900
H       -1.11043748      -0.57188520       0.08373193      -0.03590900       0.13332900
3
Properties=species:S:1:pos:R:3:initial_magmoms:R:1:initial_charges:R:1 pbc="F F F"
C       -0.05215795      -0.24120909       0.03325729       2.07181800      -0.26665900
H        1.09782612      -0.67899602       0.01169040      -0.03590900       0.13332900
H       -0.98971381      -0.59535616      -0.00049629      -0.03590900       0.13332900
3
Properties=species:S:1:pos:R:3:initial_magmoms:R:1:initial_charges:R:1 pbc="F F F"
C       -0.07801761      -0.20171519      -0.03104642       2.07181800      -0.26665900
H        0.93346575      -0.53631954      -0.02383661      -0.03590900       0.13332900
H       -1.04571824      -0.55340346      -0.06411463      -0.03590900       0.13332900
3
Properties=species:S:1:pos:R:3:initial_magmoms:R:1:initial_charges:R:1 pbc="F F F"
C       -0.01452516      -0.19455990       0.06253976       2.07181800      -0.26665900
H        0.93865028      -0.60192020      -0.00239956      -0.03590900       0.13332900
H       -1.02450626      -0.66134480      -0.01755088      -0.03590900       0.13332900
3
Properties=species:S:1:pos:R:3:initial_magmoms:R:1:initial_charges:R:1 pbc="F F F"
C        0.02597379      -0.26360383       0.01202100       2.07181800      -0.26665900
H        0.96649691      -0.60604964       0.01971969      -0.03590900       0.13332900
H       -0.94273816      -0.57393003      -0.02276904      -0.03590900       0.13332900
3
Properties=species:S:1:pos:R:3:initial_magmoms:R:1:initial_charges:R:1 pbc="F F F"
C        0.01029324      -0.14182822      -0.10363199       2.07181800      -0.26665900
H        0.97506042      -0.55706052       0.11972769      -0.03590900       0.13332900
H       -1.03375646      -0.56928158      -0.10751759      -0.03590900       0.13332900
3
Properties=species:S:1:pos:R:3:initial_magmoms:R:1:initial_charges:R:1 pbc="F F F"
C       -0.09261054      -0.25421626       0.00392819       2.07181800      -0.26665900
H        0.93898800      -0.57560942       0.03666938      -0.03590900       0.13332900
H       -1.08024370      -0.69068782       0.02915138      -0.03590900       0.13332900
3
Properties=species:S:1:pos:R:3:initial_magmoms:R:1:initial_charges:R:1 pbc="F F F"
C       -0.08118656      -0.20525550      -0.09048955       2.07181800      -0.26665900
H        1.01982747      -0.59391921      -0.01905432      -0.03590900       0.13332900
H       -1.00680927      -0.58983609       0.04487861      -0.03590900       0.13332900
3
Properties=species:S:1:pos:R:3:initial_magmoms:R:1:initial_charges:R:1 pbc="F F F"
C       -0.05188216      -0.17048340       0.05513403       2.07181800      -0.26665900
H        0.98108589      -0.62018784      -0.08085030      -0.03590900       0.13332900
H       -1.02027050      -0.55963913      -0.03134964      -0.03590900       0.13332900
3
Properties=species:S:1:pos:R:3:initial_magmoms:R:1:initial_charges:R:1 pbc="F F F"
C       -0.00655261      -0.21019861      -0.08450614       2.07181800      -0.26665900
H        0.96697385      -0.53051676       0.11182027      -0.03590900       0.13332900
H       -1.13727037      -0.56861638       0.08730840      -0.03590900       0.13332900
3
Properties=species:S:1:pos:R:3:initial_magmoms:R:1:initial_charges:R:1 pbc="F F F"
C       -0.03800931      -0.30524551      -0.04048783       2.07181800      -0.26665900
H        1.00631891      -0.69213488       0.02907020      -0.03590900       0.13332900
H       -1.05515198      -0.68096190      -0.02616713      -0.03590900       0.13332900
3
Properties=species:S:1:pos:R:3:initial_magmoms:R:1:initial_charges:R:1 pbc="F F F"
C       -0.08346418      -0.17200543       0.02101917       2.07181800      -0.26665900
H        0.92662682      -0.57530001      -0.05960336      -0.03590900       0.13332900
H       -1.06844723      -0.51830172      -0.05611609      -0.03590900       0.13332900
3
Properties=species:S:1:pos:R:3:initial_magmoms:R:1:initial_charges:R:1 pbc="F F F"
C       -0.04608855      -0.22948219       0.05819996       2.07181800      -0.26665900
H        0.94460858      -0.70617836       0.06533545      -0.03590900       0.13332900
H       -0.96980442      -0.58796128       0.00004946      -0.03590900       0.13332900
3
Properties=species:S:1:pos:R:3:initial_magmoms:R:1:initial_charges:R:1 pbc="F F F"
C       -0.02157478      -0.17819753      -0.00006309       2.07181800      -0.26665900
H        1.05975092      -0.59674861       0.03327864      -0.03590900       0.13332900
H       -1.05887554      -0.67111240      -0.00207669      -0.03590900       0.13332900
3
Properties=species:S:1:pos:R:3:initial_magmoms:R:1:initial_charges:R:1 pbc="F F F"
C       -0.00061627      -0.22654536      -0.01437956       2.07181800      -0.26665900
H        1.06286480      -0.67802805       0.04470128      -0.03590900       0.13332900
H       -1.08303471      -0.59489644      -0.03210464      -0.03590900       0.13332900
3
Properties=species:S:1:pos:R:3:initial_magmoms:R:1:initial_charges:R:1 pbc="F F F"
C       -0.10694893      -0.14456325       0.00179008       2.07181800      -0.26665900
H        0.97518689      -0.60691508      -0.06044787      -0.03590900       0.13332900
H       -0.99211337      -0.68944960      -0.07535645      -0.03590900       0.13332900
3
Properties=species:S:1:pos:R:3:initial_magmoms:R:1:initial_charges:R:1 pbc="F F F"
C        0.05501615      -0.29929768      -0.05751248       2.07181800      -0.26665900
H        1.11634060      -0.70198860      -0.02169483      -0.03590900       0.13332900
H       -1.06347387      -0.65858160      -0.11859793      -0.03590900       0.13332900
3
Properties=species:S:1:pos:R:3:initial_magmoms:R:1:initial_charges:R:1 pbc="F F F"
C       -0.04168324      -0.22727235      -0.04300867       2.07181800      -0.26665900
H        0.98160495      -0.55624857       0.03719515      -0.03590900       0.13332900
H       -1.08634953      -0.60252925       0.00166135      -0.03590900       0.13332900
3
Properties=species:S:1:pos:R:3:initial_magmoms:R:1:initial_charges:R:1 pbc="F F F"
C        0.07078072      -0.25443063      -0.03081540       2.07181800      -0.26665900
H        0.96884897      -0.58956446       0.07782456      -0.03590900       0.13332900
H       -1.15451221      -0.53896281       0.03241734      -0.03590900       0.13332900
3
Properties=species:S:1:pos:R:3:initial_magmoms:R:1:initial_charges:R:1 pbc="F F F"
C        0.05642611      -0.19295669      -0.05576293       2.07181800      -0.26665900
H        1.06824710      -0.61464975      -0.02991936      -0.03590900       0.13332900
H       -0.98924517      -0.54588736      -0.04143550      -0.03590900       0.13332900
3
Properties=species:S:1:pos:R:3:initial_magmoms:R:1:initial_charges:R:1 pbc="F F F"
C       -0.04722382      -0.19016913      -0.07701767       2.07181800      -0.26665900
H        1.04859687      -0.58717755       0.00912423      -0.03590900       0.13332900
H       -0.98646683      -0.58383974       0.00175166      -0.03590900       0.13332900
3
Properties=species:S:1:pos:R:3:initial_magmoms:R:1:initial_charges:R:1 pbc="F F F"
C        0.04577535      -0.23034341       0.05811476       2.07181800      -0.26665900
H        0.97662477      -0.68679113       0.01988631      -0.03590900       0.13332900
H       -0.94640151      -0.55410189       0.04262720      -0.03590900       0.13332900
3
Properties=species:S:1:pos:R:3:initial_magmoms:R:1:initial_charges:R:1 pbc="F F F"
C        0.04254987      -0.19127856      -0.04265199       2.07181800      -0.26665900
H        0.98449979      -0.61706374       0.05502578      -0.03590900       0.13332900
H       -1.15845158      -0.62764492      -0.06715439      -0.03590900       0.13332900
3
Properties=species:S:1:pos:R:3:initial_magmoms:R:1:initial_charges:R:1 pbc="F F F"
C       -0.02153016      -0.25986271      -0.02221495       2.07181800      -0.26665900
H        1.03116539      -0.62949470       0.02928480      -0.03590900       0.13332900
H       -0.94782879      -0.65516730       0.01091390      -0.03590900       0.13332900
3
Properties=species:S:1:pos:R:3:initial_magmoms:R:1:initial_charges:R:1 pbc="F F F"
C        0.01592727      -0.23414428      -0.11041942       2.07181800      -0.26665900
H        1.03620679      -0.52317854      -0.08329780      -0.03590900       0.13332900
H       -1.04791171      -0.57965383       0.00005931      -0.03590900       0.13332900
3
Properties=species:S:1:pos:R:3:initial_magmoms:R:1:initial_charges:R:1 pbc="F F F"
C        0.02884065      -0.09361087       0.12201098       2.07181800      -0.26665900
H        1.01986112      -0.68172288      -0.00183677      -0.03590900       0.13332900
H       -0.98515999      -0.68339056      -0.03651298      -0.03590900       0.13332900
3
Properties=species:S:1:pos:R:3:initial_magmoms:R:1:initial_charges:R:1 pbc="F F F"
C        0.03041727      -0.23199998      -0.02044386       2.07181800      -0.26665900
H        1.04932139      -0.57003999      -0.02983994      -0.03590900       0.13332900
H       -0.95901215      -0.54383353      -0.03123489      -0.03590900       0.13332900
3
Properties=species:S:1:pos:R:3:initial_magmoms:R:1:initial_charges:R:1 pbc="F F F"
C       -0.03547511      -0.19453161       0.02385112       2.07181800      -0.26665900
H        1.10349383      -0.58439612      -0.05944237      -0.03590900       0.13332900
H       -0.97601323      -0.61582394       0.06732607      -0.03590900       0.13332900
3
Properties=species:S:1:pos:R:3:initial_magmoms:R:1:initial_charges:R:1 pbc="F F F"
C        0.04701507      -0.22804783      -0.05297682       2.07181800      -0.26665900
H        0.97811278      -0.60151206      -0.00871620      -0.03590900       0.13332900
H       -1.01552276      -0.59741500      -0.06075208      -0.03590900       0.13332900
3
Properties=species:S:1:pos:R:3:initial_magmoms:R:1:initial_charges:R:1 pbc="F F F"
C        0.01122224      -0.16708973      -0.02898788       2.07181800      -0.26665900
H        1.02708534      -0.58359288      -0.09873545      -0.03590900       0.13332900
H       -0.99291738      -0.68570711       0.07841985      -0.03590900       0.13332900
3
Properties=species:S:1:pos:R:3:initial_magmoms:R:1:initial_charges:R:1 pbc="F F F"
C        0.00610231      -0.21540222       0.02889877       2.07181800      -0.26665900
H        1.03545753      -0.60995626       0.02526310      -0.03590900       0.13332900
H       -1.03257275      -0.57309446      -0.00090775      -0.03590900       0.13332900
3
Properties=species:S:1:pos:R:3:initial_magmoms:R:1:initial_charges:R:1 pbc="F F F"
C       -0.16581794      -0.19669689      -0.05952523       2.07181800      -0.26665900
H        1.00682755      -0.63403748       0.04862481      -0.03590900       0.13332900
H       -0.97564899      -0.57940901       0.04275831      -0.03590900       0.13332900
3
Properties=species:S:1:pos:R:3:initial_magmoms:R:1:initial_charges:R:1 pbc="F F F"
C        0.09499265      -0.18972616       0.04476055       2.07181800      -0.26665900
H        0.94765832      -0.59324022       0.03014336      -0.03590900       0.13332900
H       -1.03976315      -0.65909738      -0.02905745      -0.03590900       0.13332900
3
Properties=species:S:1:pos:R:3:initial_magmoms:R:1:initial_charges:R:1 pbc="F F F"
C       -0.06799502      -0.26193640       0.00299643       2.07181800      -0.26665900
H        0.92396266      -0.60573341      -0.00170348      -0.03590900       0.13332900
H       -1.06638768      -0.71201010       0.01841909      -0.03590900       0.13332900
3
Properties=species:S:1:pos:R:3:initial_magmoms:R:1:initial_charges:R:1 pbc="F F F"
C        0.04203252      -0.26802367       0.06434683       2.07181800      -0.26665900
H        1.03536855      -0.57794434      -0.00138109      -0.03590900       0.13332900
H       -1.02577242      -0.62235594       0.06938780      -0.03590900       0.13332900
3
Properties=species:S:1:pos:R:3:initial_magmoms:R:1:initial_charges:R:1 pbc="F F F"
C        0.04246564      -0.25630367       0.05715423       2.07181800      -0.26665900
H        1.04044358      -0.63015818       0.05308860      -0.03590900       0.13332900
H       -0.93519786      -0.64018602      -0.04922520      -0.03590900       0.13332900
3
Properties=species:S:1:pos:R:3:initial_magmoms:R:1:initial_charges:R:1 pbc="F F F"
C       -0.00658061      -0.22318866       0.03314810       2.07181800      -0.26665900
H        0.94021236      -0.63404903      -0.03664358      -0.03590900       0.13332900
H       -1.05836028      -0.61834279      -0.00208808      -0.03590900       0.13332900
3
Properties=species:S:1:pos:R:3:initial_magmoms:R:1:initial_charges:R:1 pbc="F F F"
C        0.00884254      -0.08127860       0.04993664       2.07181800      -0.26665900
H        0.94118724      -0.59790735      -0.08823770      -0.03590900       0.13332900
H       -1.07885107      -0.67688112       0.04101770      -0.03590900       0.13332900
3
Properties=species:S:1:pos:R:3:initial_magmoms:R:1:initial_charges:R:1 pbc="F F F"
C       -0.02981429      -0.23043723       0.02283888       2.07181800      -0.26665900
H        0.97553378      -0.57223991      -0.05760538      -0.03590900       0.13332900
H       -1.08581575      -0.51682431      -0.00216469      -0.03590900       0.13332900
3
Properties=species:S:1:pos:R:3:initial_magmoms:R:1:initial_charges:R:1 pbc="F F F"
C        0.01861878      -0.19377053       0.02636061       2.07181800      -0.26665900
H        0.98815613      -0.51939467       0.01895104      -0.03590900       0.13332900
H       -0.99734159      -0.57289817      -0.06122552      -0.03590900       0.13332900
3
Properties=species:S:1:pos:R:3:initial_magmoms:R:1:initial_charges:R:1 pbc="F F F"
C        0.00534422      -0.08987555       0.04782813       2.07181800      -0.26665900
H        1.01011533      -0.55349116       0.04985913      -0.03590900       0.13332900
H       -1.05327217      -0.57039532      -0.00856068      -0.03590900       0.13332900
3
Properties=species:S:1:pos:R:3:initial_magmoms:R:1:initial_charges:R:1 pbc="F F F"
C       -0.08468650      -0.20027237      -0.02129459       2.07181800      -0.26665900
H        0.99391525      -0.62220579       0.00202748      -0.03590900       0.13332900
H       -1.01011250      -0.66702805      -0.00912667      -0.03590900       0.13332900
3
Properties=species:S:1:pos:R:3:initial_magmoms:R:1:initial_charges:R:1 pbc="F F F"
C       -0.01122433      -0.21154250      -0.02956995       2.07181800      -0.26665900
H        0.96673339      -0.54741137      -0.06829474      -0.03590900       0.13332900
H       -0.97064698      -0.67319493       0.09284658      -0.03590900       0.13332900
3
Properties=species:S:1:pos:R:3:initial_magmoms:R:1:initial_charges:R:1 pbc="F F F"
C       -0.03030605      -0.25316329      -0.02754598       2.07181800      -0.26665900
H        0.99291046      -0.54580416      -0.04529295      -0.03590900       0.13332900
H       -1.00322717      -0.49798406       0.00736585      -0.03590900       0.13332900
3
Properties=species:S:1:pos:R:3:initial_magmoms:R:1:initial_charges:R:1 pbc="F F F"
C        0.01151496      -0.18476893      -0.03681646       2.07181800      -0.26665900
H        0.87554487      -0.61686415      -0.11010937      -0.03590900       0.13332900
H       -0.97204985      -0.61155588       0.03889599      -0.03590900       0.13332900
3
Properties=species:S:1:pos:R:3:initial_magmoms:R:1:initial_charges:R:1 pbc="F F F"
C        0.08150990      -0.14512951       0.10311151       2.07181800      -0.26665900
H        1.02989558      -0.52431368       0.01296124      -0.03590900       0.13332900
H       -1.02985298      -0.68011597      -0.01526647      -0.03590900       0.13332900
3
Properties=species:S:1:pos:R:3:initial_magmoms:R:1:initial_charges:R:1 pbc="F F F"
C        0.03717266      -0.12410714      -0.03534284       2.07181800      -0.26665900
H        1.09433366      -0.71608787      -0.04998617      -0.03590900       0.13332900
H       -1.05717539      -0.60536466      -0.00025109      -0.03590900       0.13332900
3
Properties=species:S:1:pos:R:3:initial_magmoms:R:1:initial_charges:R:1 pbc="F F F"
C       -0.03321444      -0.22928785       0.01697897       2.07181800      -0.26665900
H        1.03665921      -0.55248984       0.00485892      -0.03590900       0.13332900
H       -1.01381144      -0.51782946       0.02940602      -0.03590900       0.13332900
3
Properties=species:S:1:pos:R:3:initial_magmoms:R:1:initial_charges:R:1 pbc="F F F"
C        0.00349239      -0.20259956      -0.03298731       2.07181800      -0.26665900
H        1.02456324      -0.60031485      -0.04342093      -0.03590900       0.13332900
H       -1.03270242      -0.60288847      -0.06011041      -0.03590900       0.13332900
3
Properties=species:S:1:pos:R:3:initial_magmoms:R:1:initial_charges:R:1 pbc="F F F"
C       -0.08755939      -0.22164622      -0.03731946       2.07181800      -0.26665900
H        1.05703716      -0.63647304      -0.05636645      -0.03590900       0.13332900
H       -1.04079138      -0.65566988       0.03377222      -0.03590900       0.13332900
3
Properties=species:S:1:pos:R:3:initial_magmoms:R:1:initial_charges:R:1 pbc="F F F"
C        0.02368585      -0.11828614       0.04992710       2.07181800      -0.26665900
H        0.97132443      -0.65902721      -0.00029067      -0.03590900       0.13332900
H       -1.08137920      -0.68591351      -0.03089653      -0.03590900       0.13332900
3
Properties=species:S:1:pos:R:3:initial_magmoms:R:1:initial_charges:R:1 pbc="F F F"
C       -0.00711794      -0.09730522       0.01416310       2.07181800      -0.26665900
H        1.07318538      -0.61464794      -0.00345154      -0.03590900       0.13332900
H       -0.96893575      -0.56563451      -0.00565346      -0.03590900       0.13332900
3
Properties=species:S:1:pos:R:3:initial_magmoms:R:1:initial_charges:R:1 pbc="F F F"
C       -0.08748827      -0.18303229       0.05765179       2.07181800      -0.26665900
H        0.99407298      -0.55785081       0.02571094      -0.03590900       0.13332900
H       -0.99563579      -0.66041901      -0.00947479      -0.03590900       0.13332900
3
Properties=species:S:1:pos:R:3:initial_magmoms:R:1:initial_charges:R:1 pbc="F F F"
C        0.13534249      -0.16875967       0.04539847       2.07181800      -0.26665900
H        1.03188606      -0.57436095      -0.01596590      -0.03590900       0.13332900
H       -1.04909863      -0.57661858      -0.10090841      -0.03590900       0.13332900
3
Properties=species:S:1:pos:R:3:initial_magmoms:R:1:initial_charges:R:1 pbc="F F F"
C        0.08340341      -0.15387322       0.05289984       2.07181800      -0.26665900
H        0.96067783      -0.54192942       0.01655915      -0.03590900       0.13332900
H       -1.03218703      -0.65207179      -0.00650082      -0.03590900       0.13332900
3
Properties=species:S:1:pos:R:3:initial_magmoms:R:1:initial_charges:R:1 pbc="F F F"
C       -0.06246392      -0.21318288       0.01918967       2.07181800      -0.26665900
H        0.98742170      -0.66117368       0.11636095      -0.03590900       0.13332900
H       -0.98515513      -0.58530106      -0.04900057      -0.03590900       0.13332900
3
Properties=species:S:1:pos:R:3:initial_magmoms:R:1:initial_charges:R:1 pbc="F F F"
C       -0.02091066      -0.22726299      -0.03039549       2.07181800      -0.26665900
H        1.05307311      -0.57879624      -0.03247668      -0.03590900       0.13332900
H       -0.89807394      -0.61708490      -0.01583923      -0.03590900       0.13332900
3
Properties=species:S:1:pos:R:3:initial_magmoms:R:1:initial_charges:R:1 pbc="F F F"
C       -0.01226628      -0.23083392      -0.03633839       2.07181800      -0.26665900
H        1.00966308      -0.55663783      -0.00640698      -0.03590900       0.13332900
H       -1.08339440      -0.58338134      -0.02776556      -0.03590900       0.13332900
3
Properties=species:S:1:pos:R:3:initial_magmoms:R:1:initial_charges:R:1 pbc="F F F"
C        0.10824675      -0.24969889       0.02256272       2.07181800      -0.26665900
H        1.03995728      -0.66559761      -0.03010188      -0.03590900       0.13332900
H       -0.99395797      -0.59797377       0.07907748      -0.03590900       0.13332900
3
Properties=species:S:1:pos:R:3:initial_magmoms:R:1:initial_charges:R:1 pbc="F F F"
C        0.02469960      -0.23286520      -0.07374888       2.07181800      -0.26665900
H        1.02371411      -0.65409881      -0.02155221      -0.03590900       0.13332900
H       -1.02390823      -0.61273105       0.02879627      -0.03590900       0.13332900
3
Properties=species:S:1:pos:R:3:initial_magmoms:R:1:initial_charges:R:1 pbc="F F F"
C       -0.05134523      -0.18907884       0.05651951       2.07181800      -0.26665900
H        1.06400404      -0.63655356       0.00593920      -0.03590900       0.13332900
H       -1.03091629      -0.70416248       0.00460387      -0.03590900       0.13332900
3
Properties=species:S:1:pos:R:3:initial_magmoms:R:1:initial_charges:R:1 pbc="F F F"
C       -0.00938675      -0.07813447      -0.04704539       2.07181800      -0.26665900
H        1.03739036      -0.57013551       0.04864589      -0.03590900       0.13332900
H       -0.99373503      -0.61062059      -0.00888440      -0.03590900       0.13332900
3
Properties=species:S:1:pos:R:3:initial_magmoms:R:1:initial_charges:R:1 pbc="F F F"
C        0.01642986      -0.23997623       0.07015619       2.07181800      -0.26665900
H        0.92930514      -0.54858033       0.05738613      -0.03590900       0.13332900
H       -1.00018931      -0.58534573      -0.04341599      -0.03590900       0.13332900
3
Properties=species:S:1:pos:R:3:initial_magmoms:R:1:initial_charges:R:1 pbc="F F F"
C       -0.05669192      -0.18095035       0.07482769       2.07181800      -0.26665900
H        0.98892566      -0.64629352      -0.02297195      -0.03590900       0.13332900
H       -1.00965322      -0.62462552      -0.03677615      -0.03590900       0.13332900
3
Properties=species:S:1:pos:R:3:initial_magmoms:R:1:initial_charges:R:1 pbc="F F F"
C        0.07388654      -0.26596312       0.02917567       2.07181800      -0.26665900
H        1.03097640      -0.58983930       0.02959731      -0.03590900       0.13332900
H       -1.04166552      -0.62042914      -0.02535737      -0.03590900       0.13332900
3
Properties=species:S:1:pos:R:3:initial_magmoms:R:1:initial_charges:R:1 pbc="F F F"
C       -0.00749949      -0.15352874       0.01045997       2.07181800      -0.26665900
H        0.95535562      -0.61824830       0.05946460      -0.03590900       0.13332900
H       -0.95272802      -0.54965533       0.04964630      -0.03590900       0.13332900
3
Properties=species:S:1:pos:R:3:initial_magmoms:R:1:initial_charges:R:1 pbc="F F F"
C       -0.00108810      -0.16017215      -0.03307215       2.07181800      -0.26665900
H        1.07023927      -0.60363985      -0.05540616      -0.03590900       0.13332900
H       -1.05135743      -0.57289605      -0.06523367      -0.03590900       0.13332900
3
Properties=species:S:1:pos:R:3:initial_magmoms:R:1:initial_charges:R:1 pbc="F F F"
C        0.03108933      -0.24676137       0.08046272       2.07181800      -0.26665900
H        0.91627121      -0.64822593       0.03041810      -0.03590900       0.13332900
H       -0.91049251      -0.54531795       0.07161848      -0.03590900       0.13332900
3
Properties=species:S:1:pos:R:3:initial_magmoms:R:1:initial_charges:R:1 pbc="F F F"
C       -0.07461497      -0.26173104      -0.00140722       2.07181800      -0.26665900
H        0.97739177      -0.60318142      -0.00268002      -0.03590900       0.13332900
H       -0.93127427      -0.61866189      -0.00334989      -0.03590900       0.13332900
3
Properties=species:S:1:pos:R:3:initial_magmoms:R:1:initial_charges:R:1 pbc="F F F"
C       -0.09140508      -0.22229886       0.02041721       2.07181800      -0.26665900
H        0.99243845      -0.60180033       0.00192886      -0.03590900       0.13332900
H       -0.96334675      -0.56025791       0.02325313      -0.03590900       0.13332900
3
Properties=species:S:1:pos:R:3:initial_magmoms:R:1:initial_charges:R:1 pbc="F F F"
C        0.00573239      -0.16810265       0.02746789       2.07181800      -0.26665900
H        1.01556897      -0.59671221      -0.05237944      -0.03590900       0.13332900
H       -0.89851111      -0.58998005       0.01801620      -0.03590900       0.13332900
3
Properties=species:S:1:pos:R:3:initial_magmoms:R:1:initial_charges:R:1 pbc="F F F"
C       -0.00037556      -0.13993167       0.03252196       2.07181800      -0.26665900
H        0.96854166      -0.63388526       0.00796325      -0.03590900       0.13332900
H       -1.01139459      -0.63377356       0.00547859      -0.03590900       0.13332900
3
Properties=species:S:1:pos:R:3:initial_magmoms:R:1:initial_charges:R:1 pbc="F F F"
C        0.00737249      -0.09892429      -0.02134402       2.07181800      -0.26665900
H        1.12220929      -0.57548385      -0.00277057      -0.03590900       0.13332900
H       -1.07268790      -0.58666326      -0.00927527      -0.03590900       0.13332900
3
Properties=species:S:1:pos:R:3:initial_magmoms:R:1:initial_charges:R:1 pbc="F F F"
C       -0.01060166      -0.21441277      -0.02869491       2.07181800      -0.26665900
H        0.98467927      -0.62342237       0.05918473      -0.03590900       0.13332900
H       -0.92592613      -0.58856372      -0.00070597      -0.03590900       0.13332900
3
Properties=species:S:1:pos:R:3:initial_magmoms:R:1:initial_charges:R:1 pbc="F F F"
C        0.02423401      -0.24127437      -0.01683709       2.07181800      -0.26665900
H        0.92352531      -0.52095246      -0.07085375      -0.03590900       0.13332900
H       -1.07591705      -0.58677252       0.02973846      -0.03590900       0.13332900
3
Properties=species:S:1:pos:R:3:initial_magmoms:R:1:initial_charges:R:1 pbc="F F F"
C       -0.05428153      -0.15029903       0.01414892       2.07181800      -0.26665900
H        0.93138004      -0.63584686       0.08257183      -0.03590900       0.13332900
H       -1.12802874      -0.62836248       0.06329681      -0.03590900       0.13332900
3
Properties=species:S:1:pos:R:3:initial_magmoms:R:1:initial_charges:R:1 pbc="F F F"
C        0.01442395      -0.22331401      -0.06690022       2.07181800      -0.26665900
H        1.12254556      -0.68028564      -0.03742738      -0.03590900       0.13332900
H       -1.05757085      -0.52516351       0.04612728      -0.03590900       0.13332900
3
Properties=species:S:1:pos:R:3:initial_magmoms:R:1:initial_charges:R:1 pbc="F F F"
C       -0.03494185      -0.19963515      -0.04733932       2.07181800      -0.26665900
H        1.02313128      -0.59116362      -0.02014112      -0.03590900       0.13332900
H       -1.13835996      -0.59681832      -0.02036631      -0.03590900       0.13332900
3
Properties=species:S:1:pos:R:3:initial_magmoms:R:1:initial_charges:R:1 pbc="F F F"
C       -0.03311527      -0.13002294      -0.02949994       2.07181800      -0.26665900
H        1.01194213      -0.60289630      -0.14119128      -0.03590900       0.13332900
H       -0.98074156      -0.58162691       0.00987307      -0.03590900       0.13332900
3
Properties=species:S:1:pos:R:3:initial_magmoms:R:1:initial_charges:R:1 pbc="F F F"
C       -0.02859047      -0.19868511       0.02812960       2.07181800      -0.26665900
H        0.97431218      -0.64918865       0.00532827      -0.03590900       0.13332900
H       -0.92007516      -0.63046769      -0.01621137      -0.03590900       0.13332900
3
Properties=species:S:1:pos:R:3:initial_magmoms:R:1:initial_charges:R:1 pbc="F F F"
C       -0.01999995      -0.16920763       0.03491717       2.07181800      -0.26665900
H        0.94403075      -0.58396047       0.06576249      -0.03590900       0.13332900
H       -1.04625154      -0.62413984      -0.03367582      -0.03590900       0.13332900
3
Properties=species:S:1:pos:R:3:initial_magmoms:R:1:initial_charges:R:1 pbc="F F F"
C       -0.08144057      -0.17537935      -0.03813832       2.07181800      -0.26665900
H        1.01636802      -0.60611916       0.02312401      -0.03590900       0.13332900
H       -1.01990172      -0.66604706      -0.03163499      -0.03590900       0.13332900
3
Properties=species:S:1:pos:R:3:initial_magmoms:R:1:initial_charges:R:1 pbc="F F F"
C       -0.02137804      -0.24081907      -0.05228566       2.07181800      -0.26665900
H        1.01435095      -0.56550067      -0.00060162      -0.03590900       0.13332900
H       -1.05355706      -0.62199041      -0.09349624      -0.03590900       0.13332900
3
Properties=species:S:1:pos:R:3:initial_magmoms:R:1:initial_charges:R:1 pbc="F F F"
C        0.02251116      -0.19262321       0.07915731       2.07181800      -0.26665900
H        0.94396602      -0.64431771       0.01908273      -0.03590900       0.13332900
H       -1.04632737      -0.64891768       0.05908955      -0.03590900       0.13332900
3
Properties=species:S:1:pos:R:3:initial_magmoms:R:1:initial_charges:R:1 pbc="F F F"
C       -0.02739508      -0.13542058       0.02471662       2.07181800      -0.26665900
H        1.03553151      -0.63416309       0.05742481      -0.03590900       0.13332900
H       -1.01205744      -0.58967840      -0.04047705      -0.03590900       0.13332900
3
Properties=species:S:1:pos:R:3:initial_magmoms:R:1:initial_charges:R:1 pbc="F F F"
C       -0.05144030      -0.21134660       0.08171101       2.07181800      -0.26665900
H        0.98583558      -0.63862986      -0.04994946      -0.03590900       0.13332900
H       -0.96003478      -0.60006830       0.02850590      -0.03590900       0.13332900
3
Properties=species:S:1:pos:R:3:initial_magmoms:R:1:initial_charges:R:1 pbc="F F F"
C       -0.01121577      -0.13330344       0.04411831       2.07181800      -0.26665900
H        1.02145241      -0.56788752       0.01680573      -0.03590900       0.13332900
H       -0.95817493      -0.54477551      -0.03373010      -0.03590900       0.13332900
3
Properties=species:S:1:pos:R:3:initial_magmoms:R:1:initial_charges:R:1 pbc="F F F"
C       -0.06324280      -0.14095226       0.01775234       2.07181800      -0.26665900
H        0.99179764      -0.63359105       0.02197541      -0.03590900       0.13332900
H       -0.97954914      -0.60571123      -0.04638305      -0.03590900       0.13332900
3
Properties=species:S:1:pos:R:3:initial_magmoms:R:1:initial_charges:R:1 pbc="F F F"
C       -0.00781927      -0.20787339      -0.02492342       2.07181800      -0.26665900
H        0.98614846      -0.64245091      -0.06307400      -0.03590900       0.13332900
H       -1.02424942      -0.72054315      -0.03047504      -0.03590900       0.13332900
3
Properties=species:S:1:pos:R:3:initial_magmoms:R:1:initial_charges:R:1 pbc="F F F"
C        0.05453877      -0.14688727       0.22578702       2.07181800      -0.26665900
H        0.97331105      -0.62731148       0.04933249      -0.03590900       0.13332900
H       -0.96664152      -0.55557247       0.00164423      -0.03590900       0.13332900
3
Properties=species:S:1:pos:R:3:initial_magmoms:R:1:initial_charges:R:1 pbc="F F F"
C        0.04201720      -0.14911794       0.01611596       2.07181800      -0.26665900
H        1.00042383      -0.66807953      -0.02315820      -0.03590900       0.13332900
H       -1.00417067      -0.56632545      -0.02828837      -0.03590900       0.13332900
3
Properties=species:S:1:pos:R:3:initial_magmoms:R:1:initial_charges:R:1 pbc="F F F"
C        0.08238632      -0.20310645      -0.01485055       2.07181800      -0.26665900
H        0.99149704      -0.65727901      -0.04200971      -0.03590900       0.13332900
H       -1.02059460      -0.61753259      -0.00795498      -0.03590900       0.13332900
3
Properties=species:S:1:pos:R:3:initial_magmoms:R:1:initial_charges:R:1 pbc="F F F"
C       -0.02335839      -0.18536653       0.00927401       2.07181800      -0.26665900
H        0.96528986      -0.60851322       0.05007768      -0.03590900       0.13332900
H       -1.03296756      -0.62177689      -0.03537197      -0.03590900       0.13332900
3
Properties=species:S:1:pos:R:3:initial_magmoms:R:1:initial_charges:R:1 pbc="F F F"
C        0.00226782      -0.15789975      -0.00465593       2.07181800      -0.26665900
H        0.97963073      -0.64557335       0.02396228      -0.03590900       0.13332900
H       -1.00116898      -0.61957603      -0.00285698      -0.03590900       0.13332900
3
Properties=species:S:1:pos:R:3:initial_magmoms:R:1:initial_charges:R:1 pbc="F F F"
C        0.00648698      -0.15504821       0.05029019       2.07181800      -0.26665900
H        1.03028929      -0.62322751      -0.01313251      -0.03590900       0.13332900
H       -1.02513864      -0.53297979       0.06496903      -0.03590900       0.13332900
3
Properties=species:S:1:pos:R:3:initial_magmoms:R:1:initial_charges:R:1 pbc="F F F"
C       -0.04165772      -0.13828176      -0.12378655       2.07181800      -0.26665900
H        0.95476323      -0.55718460       0.00891125      -0.03590900       0.13332900
H       -1.03114876      -0.62902128      -0.01258042      -0.03590900       0.13332900
3
Properties=species:S:1:pos:R:3:initial_magmoms:R:1:initial_charges:R:1 pbc="F F F"
C       -0.06492855      -0.20479325       0.00350371       2.07181800      -0.26665900
H        1.09944739      -0.53840387      -0.00912898      -0.03590900       0.13332900
H       -1.06519595      -0.55551913      -0.04172339      -0.03590900       0.13332900
3
Properties=species:S:1:pos:R:3:initial_magmoms:R:1:initial_charges:R:1 pbc="F F F"
C       -0.04143114      -0.19714723       0.06013885       2.07181800      -0.26665900
H        1.04051551      -0.69040118       0.04727260      -0.03590900       0.13332900
H       -1.00896428      -0.51060011       0.00496895      -0.03590900       0.13332900
3
Properties=species:S:1:pos:R:3:initial_magmoms:R:1:initial_charges:R:1 pbc="F F F"
C        0.11982393      -0.20207145      -0.05267613       2.07181800      -0.26665900
H        0.96262959      -0.57251352      -0.01420604      -0.03590900       0.13332900
H       -1.08291145      -0.57207430      -0.00157473      -0.03590900       0.13332900
3
Properties=species:S:1:pos:R:3:initial_magmoms:R:1:initial_charges:R:1 pbc="F F F"
C        0.06979402      -0.27012989      -0.03431975       2.07181800      -0.26665900
H        0.99751157      -0.47031057      -0.02810309      -0.03590900       0.13332900
H       -0.92853516      -0.56278216      -0.00015346      -0.03590900       0.13332900
3
Properties=species:S:1:pos:R:3:initial_magmoms:R:1:initial_charges:R:1 pbc="F F F"
C       -0.05430427      -0.18878194       0.09438339       2.07181800      -0.26665900
H        1.07388995      -0.60018072      -0.00443747      -0.03590900       0.13332900
H       -0.97961904      -0.52133062      -0.07163435      -0.03590900       0.13332900
3
Properties=species:S:1:pos:R:3:initial_magmoms:R:1:initial_charges:R:1 pbc="F F F"
C        0.00509047      -0.19467666      -0.12756593       2.07181800      -0.26665900
H        0.94320521      -0.64121009       0.00798397      -0.03590900       0.13332900
H       -0.96310243      -0.61576643      -0.02352714      -0.03590900       0.13332900
3
Properties=species:S:1:pos:R:3:initial_magmoms:R:1:initial_charges:R:1 pbc="F F F"
C       -0.01156916      -0.18063565       0.01791487       2.07181800      -0.26665900
H        1.03500700      -0.59860515       0.09567061      -0.03590900       0.13332900
H       -0.99154964      -0.64845816      -0.00300712      -0.03590900       0.13332900
3
Properties=species:S:1:pos:R:3:initial_magmoms:R:1:initial_charges:R:1 pbc="F F F"
C       -0.03183688      -0.17358838       0.04951042       2.07181800      -0.26665900
H        0.97548806      -0.53352781       0.02025064      -0.03590900       0.13332900
H       -0.94178609      -0.73759848       0.06782169      -0.03590900       0.13332900
3
Properties=species:S:1:pos:R:3:initial_magmoms:R:1:initial_charges:R:1 pbc="F F F"
C       -0.00401759      -0.21078785      -0.04436327       2.07181800      -0.26665900
H        0.92259458      -0.61758447      -0.02678599      -0.03590900       0.13332900
H       -1.03676486      -0.58152024      -0.08189408      -0.03590900       0.13332900
3
Properties=species:S:1:pos:R:3:initial_magmoms:R:1:initial_charges:R:1 pbc="F F F"
C        0.00486108      -0.25884698      -0.03426072       2.07181800      -0.26665900
H        1.00620693      -0.53720950      -0.00084266      -0.03590900       0.13332900
H       -1.00788680      -0.68320269      -0.09019461      -0.03590900       0.13332900
3
Properties=species:S:1:pos:R:3:initial_magmoms:R:1:initial_charges:R:1 pbc="F F F"
C        0.11560373      -0.19332684       0.00840921       2.07181800      -0.26665900
H        1.01608174      -0.57150924       0.07865140      -0.03590900       0.13332900
H       -0.99109155      -0.55328827       0.01139344      -0.03590900       0.13332900
3
Properties=species:S:1:pos:R:3:initial_magmoms:R:1:initial_charges:R:1 pbc="F F F"
C        0.03121753      -0.18887447       0.02080949       2.07181800      -0.26665900
H        0.95030795      -0.61293481      -0.08049394      -0.03590900       0.13332900
H       -0.96916666      -0.73051055       0.04031441      -0.03590900       0.13332900
3
Properties=species:S:1:pos:R:3:initial_magmoms:R:1:initial_charges:R:1 pbc="F F F"
C        0.02924590      -0.29255329      -0.03915443       2.07181800      -0.26665900
H        0.97693233      -0.53985249      -0.00296814      -0.03590900       0.13332900
H       -0.98103851      -0.57783752      -0.04056460      -0.03590900       0.13332900
3
Properties=species:S:1:pos:R:3:initial_magmoms:R:1:initial_charges:R:1 pbc="F F F"
C        0.01908601      -0.13356010      -0.04398913       2.07181800      -0.26665900
H        0.96289976      -0.56266280       0.06822210      -0.03590900       0.13332900
H       -1.02155461      -0.68755638      -0.06222822      -0.03590900       0.13332900
3
Properties=species:S:1:pos:R:3:initial_magmoms:R:1:initial_charges:R:1 pbc="F F F"
C        0.06975065      -0.09166546       0.03688525       2.07181800      -0.26665900
H        1.03475069      -0.54521563       0.04751142      -0.03590900       0.13332900
H       -1.03310251      -0.57441015       0.01796724      -0.03590900       0.13332900
3
Properties=species:S:1:pos:R:3:initial_magmoms:R:1:initial_charges:R:1 pbc="F F F"
C       -0.03044605      -0.17120055      -0.00472742       2.07181800      -0.26665900
H        0.94615901      -0.56001468      -0.06220907      -0.03590900       0.13332900
H       -0.98210852      -0.58836498       0.00585776      -0.03590900       0.13332900
3
Properties=species:S:1:pos:R:3:initial_magmoms:R:1:initial_charges:R:1 pbc="F F F"
C       -0.02483897      -0.15326508      -0.07533152       2.07181800      -0.26665900
H        0.95989707      -0.51848991       0.02965161      -0.03590900       0.13332900
H       -1.02641601      -0.66575599       0.05357852      -0.03590900       0.13332900
3
Properties=species:S:1:pos:R:3:initial_magmoms:R:1:initial_charges:R:1 pbc="F F F"
C       -0.00860312      -0.17468662      -0.03988095       2.07181800      -0.26665900
H        0.99531022      -0.57861834      -0.06647807      -0.03590900       0.13332900
H       -1.05241225      -0.57297646      -0.07210175      -0.03590900       0.13332900
3
Properties=species:S:1:pos:R:3:initial_magmoms:R:1:initial_charges:R:1 pbc="F F F"
C        0.05622950      -0.23952065       0.01840947       2.07181800      -0.26665900
H        1.04270694      -0.60211210       0.00334523      -0.03590900       0.13332900
H       -1.05323222      -0.55472306       0.04756938      -0.03590900       0.13332900
3
Properties=species:S:1:pos:R:3:initial_magmoms:R:1:initial_charges:R:1 pbc="F F F"
C       -0.01333611      -0.10290615      -0.08945935       2.07181800      -0.26665900
H        0.98436680      -0.58795510       0.07213456      -0.03590900       0.13332900
H       -1.01620385      -0.66875195      -0.06003523      -0.03590900       0.13332900
3
Properties=species:S:1:pos:R:3:initial_magmoms:R:1:initial_charges:R:1 pbc="F F F"
C       -0.06878202      -0.25105682       0.04039321       2.07181800      -0.26665900
H        0.97916331      -0.51454765      -0.00607795      -0.03590900       0.13332900
H       -1.06648153      -0.59847715      -0.07955034      -0.03590900       0.13332900
3
Properties=species:S:1:pos:R:3:initial_magmoms:R:1:initial_charges:R:1 pbc="F F F"
C        0.02029742      -0.14303542      -0.01330306       2.07181800      -0.26665900
H        1.03095825      -0.63812864       0.03577081      -0.03590900       0.13332900
H       -0.98980283      -0.56547076      -0.03372358      -0.03590900       0.13332900
3
Properties=species:S:1:pos:R:3:initial_magmoms:R:1:initial_charges:R:1 pbc="F F F"
C        0.04354657      -0.22707859       0.02271371       2.07181800      -0.26665900
H        1.07422237      -0.52675737       0.03952973      -0.03590900       0.13332900
H       -1.09205807      -0.61236886      -0.00569311      -0.03590900       0.13332900
3
Properties=species:S:1:pos:R:3:initial_magmoms:R:1:initial_charges:R:1 pbc="F F F"
C       -0.06460692      -0.24356701       0.06572719       2.07181800      -0.26665900
H        1.00685663      -0.58167617       0.04618310      -0.03590900       0.13332900
H       -0.97176357      -0.58161358      -0.10843177      -0.03590900       0.13332900
3
Properties=species:S:1:pos:R:3:initial_magmoms:R:1:initial_charges:R:1 pbc="F F F"
C        0.02644770      -0.07608843      -0.03850252       2.07181800      -0.26665900
H        0.94671103      -0.58574420       0.04843914      -0.03590900       0.13332900
H       -1.00229839      -0.51981693       0.07301358      -0.03590900       0.13332900
3
Properties=species:S:1:pos:R:3:initial_magmoms:R:1:initial_charges:R:1 pbc="F F F"
C        0.03258260      -0.18660877      -0.02892188       2.07181800      -0.26665900
H        1.01821458      -0.56992831      -0.00208134      -0.03590900       0.13332900
H       -0.92975649      -0.64392237      -0.04894600      -0.03590900       0.13332900
3
Properties=species:S:1:pos:R:3:initial_magmoms:R:1:initial_charges:R:1 pbc="F F F"
C        0.00170632      -0.28839101       0.03196877       2.07181800      -0.26665900
H        1.12939357      -0.60920922       0.03317475      -0.03590900       0.13332900
H       -1.06685307      -0.54207154       0.04264379      -0.03590900       0.13332900
3
Properties=species:S:1:pos:R:3:initial_magmoms:R:1:initial_charges:R:1 pbc="F F F"
C        0.03978559      -0.18384275       0.06167620       2.07181800      -0.26665900
H        1.02384422      -0.63545000      -0.02274234      -0.03590900       0.13332900
H       -0.92706848      -0.54864428       0.07934784      -0.03590900       0.13332900
3
Properties=species:S:1:pos:R:3:initial_magmoms:R:1:initial_charges:R:1 pbc="F F F"
C        0.05780490      -0.25954556       0.04645097       2.07181800      -0.26665900
H        1.02026744      -0.66182083      -0.05886061      -0.03590900       0.13332900
H       -1.02153255      -0.68904292       0.05540937      -0.03590900       0.13332900
3
Properties=species:S:1:pos:R:3:initial_magmoms:R:1:initial_charges:R:1 pbc="F F F"
C        0.01365033      -0.22670441       0.12826196       2.07181800      -0.26665900
H        1.04118696      -0.53766065       0.02768368      -0.03590900       0.13332900
H       -0.91853118      -0.64941113      -0.00091774      -0.03590900       0.13332900
3
Properties=species:S:1:pos:R:3:initial_magmoms:R:1:initial_charges:R:1 pbc="F F F"
C        0.04743960      -0.20494973      -0.02733185       2.07181800      -0.26665900
H        0.97786737      -0.64539975       0.00150460      -0.03590900       0.13332900
H       -0.97052845      -0.57623004       0.06163696      -0.03590900       0.13332900
3
Properties=species:S:1:pos:R:3:initial_magmoms:R:1:initial_charges:R:1 pbc="F F F"
C       -0.03175434      -0.15916970       0.10430095       2.07181800      -0.26665900
H        1.05046326      -0.70265184      -0.00722965      -0.03590900       0.13332900
H       -1.07067069      -0.61741409      -0.05350550      -0.03590900       0.13332900
3
Properties=species:S:1:pos:R:3:initial_magmoms:R:1:initial_charges:R:1 pbc="F F F"
C       -0.05967621      -0.22976866       0.05574945       2.07181800      -0.26665900
H        0.97464517      -0.52240375      -0.06949146      -0.03590900       0.13332900
H       -1.06484444      -0.63326064      -0.06561022      -0.03590900       0.13332900
3
Properties=species:S:1:pos:R:3:initial_magmoms:R:1:initial_charges:R:1 pbc="F F F"
C        0.07477946      -0.19942556      -0.06620503       2.07181800      -0.26665900
H        0.99498135      -0.56532940      -0.07137088      -0.03590900       0.13332900
H       -1.09164087      -0.58857445      -0.04009845      -0.03590900       0.13332900
3
Properties=species:S:1:pos:R:3:initial_magmoms:R:1:initial_charges:R:1 pbc="F F F"
C       -0.02796130      -0.19867652       0.04257956       2.07181800      -0.26665900
H        1.05227303      -0.55450096       0.00779041      -0.03590900       0.13332900
H       -1.07356470      -0.66414639      -0.02740080      -0.03590900       0.13332900
3
Properties=species:S:1:pos:R:3:initial_magmoms:R:1:initial_charges:R:1 pbc="F F F"
C       -0.00339026      -0.19287581       0.01628896       2.07181800      -0.26665900
H        1.02772059      -0.67447818      -0.07955011      -0.03590900       0.13332900
H       -0.97994928      -0.55518882       0.02145352      -0.03590900       0.13332900
3
Properties=species:S:1:pos:R:3:initial_magmoms:R:1:initial_charges:R:1 pbc="F F F"
C       -0.04413896      -0.19332599      -0.05294094       2.07181800      -0.26665900
H        1.04615747      -0.60764017       0.03872631      -0.03590900       0.13332900
H       -1.03586024      -0.61418074       0.02809237      -0.03590900       0.13332900
3
Properties=species:S:1:pos:R:3:initial_magmoms:R:1:initial_charges:R:1 pbc="F F F"
C       -0.05060402      -0.19701618      -0.09625087       2.07181800      -0.26665900
H        1.07882555      -0.62583718      -0.01752043      -0.03590900       0.13332900
H       -1.06385350      -0.66852665       0.05013084      -0.03590900       0.13332900
3
Properties=species:S:1:pos:R:3:initial_magmoms:R:1:initial_charges:R:1 pbc="F F F"
C        0.01320814      -0.21762240      -0.00582274       2.07181800      -0.26665900
H        1.05961711      -0.54574655       0.03013600      -0.03590900       0.13332900
H       -1.05224828      -0.59074685       0.00641948      -0.03590900       0.13332900
3
Properties=species:S:1:pos:R:3:initial_magmoms:R:1:initial_charges:R:1 pbc="F F F"
C       -0.00529535      -0.15078104       0.01536985       2.07181800      -0.26665900
H        0.95199012      -0.57207473      -0.05573366      -0.03590900       0.13332900
H       -0.96896173      -0.64579267      -0.00357337      -0.03590900       0.13332900
3
Properties=species:S:1:pos:R:3:initial_magmoms:R:1:initial_charges:R:1 pbc="F F F"
C        0.00046949      -0.23852537      -0.02915808       2.07181800      -0.26665900
H        0.99892914      -0.51205609       0.08781585      -0.03590900       0.13332900
H       -1.03267206      -0.55156699      -0.09613324      -0.03590900       0.13332900
3
Properties=species:S:1:pos:R:3:initial_magmoms:R:1:initial_charges:R:1 pbc="F F F"
C        0.00223559      -0.25505472       0.08181035       2.07181800      -0.26665900
H        0.95064565      -0.65383812      -0.03584564      -0.03590900       0.13332900
H       -0.96803619      -0.59137128       0.03377756      -0.03590900       0.13332900
3
Properties=species:S:1:pos:R:3:initial_magmoms:R:1:initial_charges:R:1 pbc="F F F"
C        0.09805055      -0.17630847       0.05726101       2.07181800      -0.26665900
H        1.00965976      -0.54979435       0.07034326      -0.03590900       0.13332900
H       -1.03679074      -0.64761909       0.00930062      -0.03590900       0.13332900
3
Properties=species:S:1:pos:R:3:initial_magmoms:R:1:initial_charges:R:1 pbc="F F F"
C        0.06839291      -0.30974985       0.00979978       2.07181800      -0.26665900
H        0.98615221      -0.56089893       0.02981630      -0.03590900       0.13332900
H       -1.04281843      -0.61280268       0.09508996      -0.03590900       0.13332900
3
Properties=species:S:1:pos:R:3:initial_magmoms:R:1:initial_charges:R:1 pbc="F F F"
C        0.07375722      -0.19711672      -0.08874464       2.07181800      -0.26665900
H        1.03317750      -0.63597521       0.05030764      -0.03590900       0.13332900
H       -1.04807404      -0.67298935       0.06588245      -0.03590900       0.13332900
3
Properties=species:S:1:pos:R:3:initial_magmoms:R:1:initial_charges:R:1 pbc="F F F"
C       -0.09413729      -0.25975561      -0.00026506       2.07181800      -0.26665900
H        1.06615856      -0.51504929       0.02195286      -0.03590900       0.13332900
H       -0.96287807      -0.62267601      -0.11231624      -0.03590900       0.13332900
3
Properties=species:S:1:pos:R:3:initial_magmoms:R:1:initial_charges:R:1 pbc="F F F"
C        0.03548457      -0.13177672       0.06493525       2.07181800      -0.26665900
H        1.05461262      -0.59096130       0.01721378      -0.03590900       0.13332900
H       -0.96751989      -0.60731835       0.03448235      -0.03590900       0.13332900
3
Properties=species:S:1:pos:R:3:initial_magmoms:R:1:initial_charges:R:1 pbc="F F F"
C       -0.08254793      -0.18611754      -0.01818025       2.07181800      -0.26665900
H        0.98349900      -0.55931448      -0.02781201      -0.03590900       0.13332900
H       -0.97678919      -0.65554575      -0.03938017      -0.03590900       0.13332900
3
Properties=species:S:1:pos:R:3:initial_magmoms:R:1:initial_charges:R:1 pbc="F F F"
C       -0.03408906      -0.13473875       0.03560250       2.07181800      -0.26665900
H        1.00036812      -0.61107206      -0.03396194      -0.03590900       0.13332900
H       -1.05212451      -0.63336116      -0.04153785      -0.03590900       0.13332900
3
Properties=species:S:1:pos:R:3:initial_magmoms:R:1:initial_charges:R:1 pbc="F F F"
C        0.08424629      -0.25078074      -0.04012746       2.07181800      -0.26665900
H        0.99670091      -0.60280478       0.05823591      -0.03590900       0.13332900
H       -1.08047414      -0.57587031      -0.04911586      -0.03590900       0.13332900
3
Properties=species:S:1:pos:R:3:initial_magmoms:R:1:initial_charges:R:1 pbc="F F F"
C        0.07333185      -0.09031428       0.05820498       2.07181800      -0.26665900
H        1.04926513      -0.59569361      -0.05990221      -0.03590900       0.13332900
H       -0.95537704      -0.54412417      -0.02362787      -0.03590900       0.13332900
3
Properties=species:S:1:pos:R:3:initial_magmoms:R:1:initial_charges:R:1 pbc="F F F"
C        0.04848424      -0.29316460      -0.06824034       2.07181800      -0.26665900
H        1.03672637      -0.59016955      -0.00397085      -0.03590900       0.13332900
H       -0.96377549      -0.66956791       0.07473737      -0.03590900       0.13332900
3
Properties=species:S:1:pos:R:3:initial_magmoms:R:1:initial_charges:R:1 pbc="F F F"
C        0.03593676      -0.11282658      -0.13011090       2.07181800      -0.26665900
H        1.01699656      -0.60056036       0.08258722      -0.03590900       0.13332900
H       -1.04333282      -0.62057900       0.01287483      -0.03590900       0.13332900
3
Properties=species:S:1:pos:R:3:initial_magmoms:R:1:initial_charges:R:1 pbc="F F F"
C        0.01643772      -0.17892469      -0.04523168       2.07181800      -0.26665900
H        1.05446684      -0.56174410       0.05220585      -0.03590900       0.13332900
H       -0.97611317      -0.68901397       0.06860787      -0.03590900       0.13332900
3
Properties=species:S:1:pos:R:3:initial_magmoms:R:1:initial_charges:R:1 pbc="F F F"
C        0.02340576      -0.19456610      -0.01859787       2.07181800      -0.26665900
H        0.99855840      -0.61360575      -0.14212869      -0.03590900       0.13332900
H       -0.92545884      -0.68535911      -0.02972772      -0.03590900       0.13332900
3
Properties=species:S:1:pos:R:3:initial_magmoms:R:1:initial_charges:R:1 pbc="F F F"
C        0.05540357      -0.21628020       0.11443719       2.07181800      -0.26665900
H        0.91442232      -0.68362087       0.05449724      -0.03590900       0.13332900
H       -0.94622121      -0.62154861      -0.04815318      -0.03590900       0.13332900
