3
Properties=species:S:1:pos:R:3:initial_magmoms:R:1:initial_charges:R:1 pbc="F F F"
C        0.05292157      -0.18816159       0.02936214       2.07181800      -0.26665900
H        1.07392157      -0.55089011      -0.02931834      -0.03590900       0.13332900
H       -0.97819212      -0.61145756      -0.00309657      -0.03590900       0.13332900
3
Properties=species:S:1:pos:R:3:initial_magmoms:R:1:initial_charges:R:1 pbc="F F F"
C        0.04873036      -0.21851900      -0.01584515       2.07181800      -0.26665900
H        0.97450572      -0.58095462      -0.06904616      -0.03590900       0.13332900
H       -0.95435042      -0.62975305       0.00957117      -0.03590900       0.13332900
3
Properties=species:S:1:pos:R:3:initial_magmoms:R:1:initial_charges:R:1 pbc="F F F"
C       -0.01250274      -0.20185431      -0.06408588       2.07181800      -0.26665900
H        1.05590290      -0.66071991      -0.02525242      -0.03590900       0.13332900
H       -0.99160833      -0.64427549      -0.03173857      -0.03590900       0.13332900
3
Properties=species:S:1:pos:R:3:initial_magmoms:R:1:initial_charges:R:1 pbc="F F F"
C        0.05365885      -0.18707101       0.00289492       2.07181800      -0.26665900
H        0.95079000      -0.61523849      -0.01064277      -0.03590900       0.13332900
H       -1.00917702      -0.62572687      -0.00131455      -0.03590900       0.13332900
3
Properties=species:S:1:pos:R:3:initial_magmoms:R:1:initial_charges:R:1 pbc="F F F"
C        0.00151685      -0.18516777      -0.02987727       2.07181800      -0.26665900
H        1.02750273      -0.61946589      -0.04753732      -0.03590900       0.13332900
H       -1.02612598      -0.58895959       0.00996750      -0.03590900       0.13332900
3
Properties=species:S:1:pos:R:3:initial_magmoms:R:1:initial_charges:R:1 pbc="F F F"
C        0.01323682      -0.21009241       0.07292314       2.07181800      -0.26665900
H        0.99913201      -0.60362855       0.04747443      -0.03590900       0.13332900
H       -1.03397175      -0.62466595       0.00562810      -0.03590900       0.13332900
3
Properties=species:S:1:pos:R:3:initial_magmoms:R:1:initial_charges:R:1 pbc="F F F"
C       -0.00935351      -0.17829619       0.00653462       2.07181800      -0.26665900
H        0.97972202      -0.68152027       0.02739755      -0.03590900       0.13332900
H       -0.97288287      -0.65233964       0.04917873      -0.03590900       0.13332900
3
Properties=species:S:1:pos:R:3:initial_magmoms:R:1:initial_charges:R:1 pbc="F F F"
C        0.05071577      -0.21414443       0.00098460       2.07181800      -0.26665900
H        1.01892027      -0.63058454       0.00006197      -0.03590900       0.13332900
H       -1.00672149      -0.65955858       0.03052974      -0.03590900       0.13332900
3
Properties=species:S:1:pos:R:3:initial_magmoms:R:1:initial_charges:R:1 pbc="F F F"
C        0.00273614      -0.16742783      -0.05840911       2.07181800      -0.26665900
H        0.96510429      -0.67581159       0.07229503      -0.03590900       0.13332900
H       -0.95485969      -0.54078016       0.02384483      -0.03590900       0.13332900
3
Properties=species:S:1:pos:R:3:initial_magmoms:R:1:initial_charges:R:1 pbc="F F F"
C        0.00003326      -0.20885263      -0.03348199       2.07181800      -0.26665900
H        1.00630829      -0.61826769      -0.01443406      -0.03590900       0.13332900
H       -1.05221471      -0.62164301      -0.00722042      -0.03590900       0.13332900
3
Properties=species:S:1:pos:R:3:initial_magmoms:R:1:initial_charges:R:1 pbc="F F F"
C        0.03994760      -0.17870794      -0.04636201       2.07181800      -0.26665900
H        1.00644326      -0.58827677      -0.02160257      -0.03590900       0.13332900
H       -0.99872943      -0.60366039       0.00012874      -0.03590900       0.13332900
3
Properties=species:S:1:pos:R:3:initial_magmoms:R:1:initial_charges:R:1 pbc="F F F"
C        0.05248364      -0.20874850      -0.01453695       2.07181800      -0.26665900
H        0.92709522      -0.60716539      -0.00958894      -0.03590900       0.13332900
H       -1.02279366      -0.59745477       0.01263152      -0.03590900       0.13332900
3
Properties=species:S:1:pos:R:3:initial_magmoms:R:1:initial_charges:R:1 pbc="F F F"
C        0.01418957      -0.22060908       0.00727318       2.07181800      -0.26665900
H        0.95567271      -0.58432256      -0.04604164      -0.03590900       0.13332900
H       -1.00654096      -0.61052368      -0.02420946      -0.03590900       0.13332900
3
Properties=species:S:1:pos:R:3:initial_magmoms:R:1:initial_charges:R:1 pbc="F F F"
C       -0.02137172      -0.17755332      -0.00133509       2.07181800      -0.26665900
H        1.02024915      -0.56656380       0.01597014      -0.03590900       0.13332900
H       -0.96618914      -0.58108051       0.04436057      -0.03590900       0.13332900
3
Properties=species:S:1:pos:R:3:initial_magmoms:R:1:initial_charges:R:1 pbc="F F F"
C        0.04654017      -0.19779073       0.00521930       2.07181800      -0.26665900
H        1.00452468      -0.66704673       0.00434033      -0.03590900       0.13332900
H       -1.05172984      -0.60058356      -0.01674615      -0.03590900       0.13332900
3
Properties=species:S:1:pos:R:3:initial_magmoms:R:1:initial_charges:R:1 pbc="F F F"
C       -0.00936985      -0.18998777      -0.00467726       2.07181800      -0.26665900
H        0.99164109      -0.59984978      -0.05290816      -0.03590900       0.13332900
H       -1.03957064      -0.63954982      -0.00915510      -0.03590900       0.13332900
3
Properties=species:S:1:pos:R:3:initial_magmoms:R:1:initial_charges:R:1 pbc="F F F"
C        0.00383846      -0.24602051      -0.01783404       2.07181800      -0.26665900
H        1.00868469      -0.64398169      -0.01864106      -0.03590900       0.13332900
H       -1.03336321      -0.59194955      -0.02360691      -0.03590900       0.13332900
3
Properties=species:S:1:pos:R:3:initial_magmoms:R:1:initial_charges:R:1 pbc="F F F"
C        0.00828798      -0.25580515       0.01871703       2.07181800      -0.26665900
H        1.04105412      -0.57580113       0.05659917      -0.03590900       0.13332900
H       -1.01004573      -0.61777989       0.00446025      -0.03590900       0.13332900
3
Properties=species:S:1:pos:R:3:initial_magmoms:R:1:initial_charges:R:1 pbc="F F F"
C        0.00238285      -0.13446024      -0.00404676       2.07181800      -0.26665900
H        1.01151032      -0.59363591       0.01870174      -0.03590900       0.13332900
H       -0.97642767      -0.59508938      -0.01009160      -0.03590900       0.13332900
3
Properties=species:S:1:pos:R:3:initial_magmoms:R:1:initial_charges:R:1 pbc="F F F"
C        0.00663010      -0.21038026      -0.01733246       2.07181800      -0.26665900
H        0.99457383      -0.62501553      -0.00731557      -0.03590900       0.13332900
H       -0.97563446      -0.58949424       0.00757241      -0.03590900       0.13332900
3
Properties=species:S:1:pos:R:3:initial_magmoms:R:1:initial_charges:R:1 pbc="F F F"
C        0.02651679      -0.19429036       0.01072610       2.07181800      -0.26665900
H        0.93639692      -0.63946182       0.01679089      -0.03590900       0.13332900
H       -0.97851070      -0.63627128       0.01509291      -0.03590900       0.13332900
3
Properties=species:S:1:pos:R:3:initial_magmoms:R:1:initial_charges:R:1 pbc="F F F"
C       -0.00155893      -0.20350219       0.03125390       2.07181800      -0.26665900
H        0.96899260      -0.58455522      -0.05133161      -0.03590900       0.13332900
H       -1.01287071      -0.61395399       0.03384432      -0.03590900       0.13332900
3
Properties=species:S:1:pos:R:3:initial_magmoms:R:1:initial_charges:R:1 pbc="F F F"
C       -0.00275850      -0.24406683       0.03245375       2.07181800      -0.26665900
H        0.99951502      -0.62165072      -0.03006816      -0.03590900       0.13332900
H       -0.97913013      -0.64002581       0.01879480      -0.03590900       0.13332900
3
Properties=species:S:1:pos:R:3:initial_magmoms:R:1:initial_charges:R:1 pbc="F F F"
C        0.02000964      -0.19939191      -0.02332858       2.07181800      -0.26665900
H        1.03515379      -0.58586669      -0.03153245      -0.03590900       0.13332900
H       -1.01772122      -0.64104064      -0.03966443      -0.03590900       0.13332900
3
Properties=species:S:1:pos:R:3:initial_magmoms:R:1:initial_charges:R:1 pbc="F F F"
C        0.03987637      -0.22326731      -0.00948841       2.07181800      -0.26665900
H        0.97697047      -0.63904133      -0.04316140      -0.03590900       0.13332900
H       -0.98976227      -0.59804519      -0.04879213      -0.03590900       0.13332900
3
Properties=species:S:1:pos:R:3:initial_magmoms:R:1:initial_charges:R:1 pbc="F F F"
C        0.00684819      -0.16935960      -0.02518755       2.07181800      -0.26665900
H        0.98895933      -0.63562350      -0.00666977      -0.03590900       0.13332900
H       -1.02529223      -0.55177971      -0.06159692      -0.03590900       0.13332900
3
Properties=species:S:1:pos:R:3:initial_magmoms:R:1:initial_charges:R:1 pbc="F F F"
C        0.00587980      -0.25840340       0.02141356       2.07181800      -0.26665900
H        1.02655922      -0.61378271       0.00815252      -0.03590900       0.13332900
H       -1.00756685      -0.65970431      -0.02382842      -0.03590900       0.13332900
3
Properties=species:S:1:pos:R:3:initial_magmoms:R:1:initial_charges:R:1 pbc="F F F"
C        0.03856816      -0.20927291       0.01857227       2.07181800      -0.26665900
H        1.01857473      -0.60021468      -0.00163018      -0.03590900       0.13332900
H       -1.01207307      -0.59963189       0.02463170      -0.03590900       0.13332900
3
Properties=species:S:1:pos:R:3:initial_magmoms:R:1:initial_charges:R:1 pbc="F F F"
C        0.01338997      -0.15009271      -0.00792840       2.07181800      -0.26665900
H        0.97765973      -0.60514119       0.04543860      -0.03590900       0.13332900
H       -0.99658866      -0.61598791      -0.02515925      -0.03590900       0.13332900
3
Properties=species:S:1:pos:R:3:initial_magmoms:R:1:initial_charges:R:1 pbc="F F F"
C       -0.01252446      -0.17898534       0.05747954       2.07181800      -0.26665900
H        0.94244211      -0.58534514       0.01401218      -0.03590900       0.13332900
H       -0.98369310      -0.58045656       0.02426252      -0.03590900       0.13332900
3
Properties=species:S:1:pos:R:3:initial_magmoms:R:1:initial_charges:R:1 pbc="F F F"
C       -0.03792158      -0.15432915      -0.02912133       2.07181800      -0.26665900
H        1.02081157      -0.60993775       0.00911380      -0.03590900       0.13332900
H       -1.05847365      -0.55936399       0.00402890      -0.03590900       0.13332900
3
Properties=species:S:1:pos:R:3:initial_magmoms:R:1:initial_charges:R:1 pbc="F F F"
C       -0.01244272      -0.21016737       0.00243276       2.07181800      -0.26665900
H        0.98296397      -0.61347484      -0.02289591      -0.03590900       0.13332900
H       -1.03000838      -0.55143615      -0.02116801      -0.03590900       0.13332900
3
Properties=species:S:1:pos:R:3:initial_magmoms:R:1:initial_charges:R:1 pbc="F F F"
C       -0.01046683      -0.17065520       0.01742768       2.07181800      -0.26665900
H        1.00880331      -0.58359087       0.01745876      -0.03590900       0.13332900
H       -0.96254106      -0.55702142      -0.00783531      -0.03590900       0.13332900
3
Properties=species:S:1:pos:R:3:initial_magmoms:R:1:initial_charges:R:1 pbc="F F F"
C       -0.00956561      -0.24825572      -0.04605654       2.07181800      -0.26665900
H        0.98958275      -0.61341870       0.00764623      -0.03590900       0.13332900
H       -1.01117828      -0.54659337      -0.00290352      -0.03590900       0.13332900
3
Properties=species:S:1:pos:R:3:initial_magmoms:R:1:initial_charges:R:1 pbc="F F F"
C        0.00731505      -0.22258585      -0.04683531       2.07181800      -0.26665900
H        0.99276718      -0.61747872      -0.03844476      -0.03590900       0.13332900
H       -0.99801580      -0.57751599       0.01433773      -0.03590900       0.13332900
3
Properties=species:S:1:pos:R:3:initial_magmoms:R:1:initial_charges:R:1 pbc="F F F"
C       -0.05669210      -0.21257407      -0.02298078       2.07181800      -0.26665900
H        0.97897098      -0.64956478       0.02415768      -0.03590900       0.13332900
H       -0.97222892      -0.57183399      -0.02406028      -0.03590900       0.13332900
3
Properties=species:S:1:pos:R:3:initial_magmoms:R:1:initial_charges:R:1 pbc="F F F"
C        0.02029240      -0.15453333      -0.01535629       2.07181800      -0.26665900
H        1.04120062      -0.62463835      -0.02306296      -0.03590900       0.13332900
H       -1.01674505      -0.60412686      -0.04132659      -0.03590900       0.13332900
3
Properties=species:S:1:pos:R:3:initial_magmoms:R:1:initial_charges:R:1 pbc="F F F"
C       -0.00163391      -0.17993707       0.01039941       2.07181800      -0.26665900
H        0.96768439      -0.56136149       0.02969471      -0.03590900       0.13332900
H       -0.99836435      -0.62037453       0.02885899      -0.03590900       0.13332900
3
Properties=species:S:1:pos:R:3:initial_magmoms:R:1:initial_charges:R:1 pbc="F F F"
C        0.03026117      -0.20986001       0.00383239       2.07181800      -0.26665900
H        1.01508796      -0.56825490       0.04875889      -0.03590900       0.13332900
H       -1.02077049      -0.64439886      -0.00781276      -0.03590900       0.13332900
3
Properties=species:S:1:pos:R:3:initial_magmoms:R:1:initial_charges:R:1 pbc="F F F"
C        0.04214519      -0.19353268      -0.00435982       2.07181800      -0.26665900
H        1.01039075      -0.58873604       0.07268310      -0.03590900       0.13332900
H       -1.06419303      -0.67959266       0.01938883      -0.03590900       0.13332900
3
Properties=species:S:1:pos:R:3:initial_magmoms:R:1:initial_charges:R:1 pbc="F F F"
C       -0.01822643      -0.20395040      -0.02053819       2.07181800      -0.26665900
H        1.03455622      -0.66224888      -0.01401007      -0.03590900       0.13332900
H       -0.93792007      -0.59225254       0.02130801      -0.03590900       0.13332900
3
Properties=species:S:1:pos:R:3:initial_magmoms:R:1:initial_charges:R:1 pbc="F F F"
C       -0.00812137      -0.19702087       0.00751583       2.07181800      -0.26665900
H        0.97893878      -0.58990254      -0.03120541      -0.03590900       0.13332900
H       -1.01130506      -0.58322129      -0.03678648      -0.03590900       0.13332900
3
Properties=species:S:1:pos:R:3:initial_magmoms:R:1:initial_charges:R:1 pbc="F F F"
C        0.01490142      -0.20431424       0.01943066       2.07181800      -0.26665900
H        1.05238567      -0.61394145      -0.00702411      -0.03590900       0.13332900
H       -0.95931839      -0.58389380      -0.01408423      -0.03590900       0.13332900
3
Properties=species:S:1:pos:R:3:initial_magmoms:R:1:initial_charges:R:1 pbc="F F F"
C        0.00772200      -0.22742075      -0.01135509       2.07181800      -0.26665900
H        0.99064731      -0.58117465      -0.01239030      -0.03590900       0.13332900
H       -0.99174912      -0.54661087       0.03788585      -0.03590900       0.13332900
3
Properties=species:S:1:pos:R:3:initial_magmoms:R:1:initial_charges:R:1 pbc="F F F"
C       -0.02251844      -0.16067559       0.03738420       2.07181800      -0.26665900
H        0.95854730      -0.65096116      -0.05145211      -0.03590900       0.13332900
H       -0.95093127      -0.60428921      -0.00156967      -0.03590900       0.13332900
3
Properties=species:S:1:pos:R:3:initial_magmoms:R:1:initial_charges:R:1 pbc="F F F"
C        0.00079124      -0.19235666      -0.01185437       2.07181800      -0.26665900
H        1.00056575      -0.64506583      -0.07790636      -0.03590900       0.13332900
H       -0.99800435      -0.63311599       0.01182218      -0.03590900       0.13332900
3
Properties=species:S:1:pos:R:3:initial_magmoms:R:1:initial_charges:R:1 pbc="F F F"
C        0.01754628      -0.16323044       0.02465701       2.07181800      -0.26665900
H        0.98271793      -0.59455525      -0.00528470      -0.03590900       0.13332900
H       -1.00888994      -0.62388684      -0.00280396      -0.03590900       0.13332900
3
Properties=species:S:1:pos:R:3:initial_magmoms:R:1:initial_charges:R:1 pbc="F F F"
C       -0.02544028      -0.16098912       0.02772624       2.07181800      -0.26665900
H        1.02590713      -0.63855896       0.05393282      -0.03590900       0.13332900
H       -1.03707838      -0.58220815      -0.00883951      -0.03590900       0.13332900
3
Properties=species:S:1:pos:R:3:initial_magmoms:R:1:initial_charges:R:1 pbc="F F F"
C       -0.02980894      -0.23206833      -0.01914228       2.07181800      -0.26665900
H        1.03854244      -0.61163897       0.03281185      -0.03590900       0.13332900
H       -1.06894040      -0.58589786       0.05023916      -0.03590900       0.13332900
3
Properties=species:S:1:pos:R:3:initial_magmoms:R:1:initial_charges:R:1 pbc="F F F"
C       -0.03129477      -0.22479198       0.01995438       2.07181800      -0.26665900
H        1.06137358      -0.65016435       0.00701424      -0.03590900       0.13332900
H       -0.99650620      -0.59998043      -0.00029777      -0.03590900       0.13332900
