@set PROJECT Au 
@set RUN ENERGY
 
&FORCE_EVAL
  METHOD Quickstep
    &DFT
    BASIS_SET_FILE_NAME BASIS_ccGRB_UZH 
    BASIS_SET_FILE_NAME RI_AUTO_OPT
    POTENTIAL_FILE_NAME POTENTIAL_UZH 
    &MGRID
      CUTOFF       800 
      REL_CUTOFF    80
    &END MGRID
    &POISSON
      PERIODIC XY
      POISSON_SOLVER MT 
    &END POISSON
    &SCF
      SCF_GUESS RESTART 
      EPS_SCF 1.0E-8
      MAX_SCF 5000
      ADDED_MOS 700  
      CHOLESKY INVERSE
      &SMEAR  ON
         METHOD FERMI_DIRAC
         ELECTRONIC_TEMPERATURE [K] 300 
      &END SMEAR
      &DIAGONALIZATION
          ALGORITHM STANDARD
      &END DIAGONALIZATION
      &MIXING
          METHOD BROYDEN_MIXING
          ALPHA   0.1
          BETA    1.5
          NBROYDEN  8
      &END MIXING 
      &PRINT
        &RESTART
        &END
      &END
    &END SCF
    &XC
      &XC_FUNCTIONAL PBE
      &END XC_FUNCTIONAL
      !The following HF section has no effect on the result of the calculation
      !it is only there because the relevant quantities are only available in RI-HFX
      &HF
         FRACTION 0.0 !we do not want any HF
         &INTERACTION_POTENTIAL
            !this is completely irrelevant, except that we need a short range potential for the calculation
            !to go through in PBCs, so IDENTITY (=overlap) is fine
            POTENTIAL_TYPE IDENTITY
         &END
         !This is the critical section
         &RI
            RI_METRIC IDENTITY !this is the metric used for the projection of the density (overlap here)
            MEMORY_CUT 1
            &PRINT
               !Subsection required to have the RI density coefficient printed (in demo-RI_DENSITY_COEFFS.dat)
               &RI_DENSITY_COEFFS
                  !MULT_BY_S !uncomment to have the RI coefficients directly multiplied by the metric (overlap here)
               &END
               !To get the metric 2c integrals, use the following (in demo-RI_2C_INTS.fm), unformated
               &RI_METRIC_2C_INTS
               &END
            &END
         &END
      &END
    &END XC
    &EXTERNAL_POTENTIAL
      STATIC .TRUE.
      FUNCTION E*Z
      PARAMETERS E 
      VALUES 0.01945 
    &END EXTERNAL_POTENTIAL
    &PRINT
      &E_DENSITY_CUBE
        FILENAME EFIELD
        #STRIDE 1 1 1
        &EACH
         JUST_ENERGY 1
        &END EACH
      &END E_DENSITY_CUBE
      &V_HARTREE_CUBE
        FILENAME EFIELD
        &EACH
         JUST_ENERGY 1
        &END EACH
      &END V_HARTREE_CUBE
    &END PRINT
  &END DFT
  &SUBSYS
    @include cell.sys
    @include coords.sys
    &KIND Au
      BASIS_SET ccGRB-D-q11 
      BASIS_SET RI_HFX RI_AUTO_OPT-ccGRB 
      POTENTIAL GTH-PBE-q11
    &END KIND
  &END SUBSYS
&END FORCE_EVAL
&GLOBAL
  PROJECT ${PROJECT}
  RUN_TYPE ${RUN}
  PRINT_LEVEL MEDIUM
  EXTENDED_FFT_LENGTHS
&END GLOBAL
